24
frame 33320 P
C     42.221000    17.350000    51.473000
H     43.002000    16.604000    51.262000
H     42.667000    18.259000    51.898000
C     41.243000    16.756000    52.466000
C     40.568000    17.675000    53.519000
O     41.310000    18.507000    54.072000
O     39.349000    17.467000    53.759000
O     40.974000    15.567000    52.445000
C     39.530000    16.189000    49.790000
H     39.093000    15.244000    49.463000
C     40.824000    16.450000    49.593000
H     41.483000    15.721000    49.117000
C     41.488000    17.701000    50.112000
C     40.472000    18.774000    50.407000
H     40.855000    19.788000    50.530000
C     39.175000    18.511000    50.593000
H     38.493000    19.317000    50.869000
C     38.577000    17.131000    50.477000
H     38.390000    16.769000    51.506000
O     37.354000    17.168000    49.755000
H     36.580000    16.840000    50.299000
C     42.591000    18.168000    49.091000
O     43.399000    17.292000    48.712000
O     42.613000    19.372000    48.725000
