24
frame 33320 R
C     42.453000    16.838000    52.467000
H     42.950000    16.189000    51.744000
H     43.037000    17.571000    53.027000
C     41.133000    16.774000    52.677000
C     40.436000    17.688000    53.686000
O     41.131000    18.568000    54.230000
O     39.205000    17.486000    53.896000
O     40.348000    15.843000    52.019000
C     39.822000    16.159000    50.680000
H     39.352000    15.216000    50.366000
C     40.958000    16.515000    49.770000
H     41.622000    15.723000    49.415000
C     41.266000    17.803000    49.514000
C     40.402000    18.870000    50.030000
H     40.757000    19.894000    49.911000
C     39.229000    18.608000    50.633000
H     38.619000    19.427000    51.017000
C     38.693000    17.209000    50.781000
H     38.273000    17.105000    51.791000
O     37.691000    16.965000    49.795000
H     36.839000    16.680000    50.232000
C     42.551000    18.188000    48.784000
O     43.356000    17.279000    48.475000
O     42.724000    19.422000    48.567000
