24
Coordinates from ORCA-job neb_NEB-CI_converged.QMRegion
  C          42.36068170805998     17.23803580853016     51.87647182378053
  H          42.92833838726838     16.53936859906671     51.26461944746774
  H          42.84771047648557     18.15135270998900     52.21668245578683
  C          41.18111531751970     16.82879302445920     52.50203371165373
  C          40.50861702403226     17.72723443483478     53.56436184882994
  O          41.22064020023803     18.58278209795498     54.12598826258137
  O          39.28799095580507     17.50796813331349     53.81631751326825
  O          40.56833522398606     15.77195996202792     52.13044781119133
  C          39.65140201949425     16.10469336282133     50.26138342611762
  H          39.30047387272749     15.07423831098529     50.19597230748743
  C          40.81355027431579     16.47869398558975     49.61076304710877
  H          41.47371046928534     15.73462510140651     49.16306596891543
  C          41.30638074303092     17.77933116717961     49.77655963638331
  C          40.39388830035129     18.81863180698366     50.26486610040445
  H          40.76666250304891     19.84401469109164     50.28210226806703
  C          39.15032183203756     18.51730347773858     50.67264039480447
  H          38.48574769109677     19.30394909064270     51.03111352862988
  C          38.60345671004340     17.11655106709837     50.67296088121046
  H          38.27103120273482     16.89174679989042     51.69707143386741
  O          37.51434269723450     17.01154464579945     49.75797759140653
  H          36.68133778587522     16.69278497151456     50.22281868409849
  C          42.56007966143481     18.19110748869143     48.99717442799523
  O          43.37985730513417     17.29555084446889     48.69527492627274
  O          42.66201569488454     19.40648983949921     48.67557135615344
