24
frame 46990 P
C     43.847000    17.138000    38.036000
H     44.676000    16.499000    37.702000
H     44.241000    18.089000    38.408000
C     43.123000    16.406000    39.136000
C     42.496000    17.127000    40.366000
O     43.089000    18.128000    40.821000
O     41.466000    16.585000    40.841000
O     42.992000    15.202000    39.057000
C     41.139000    15.590000    36.682000
H     40.787000    14.621000    36.323000
C     42.330000    16.066000    36.309000
H     42.985000    15.507000    35.639000
C     42.873000    17.380000    36.804000
C     41.760000    18.266000    37.310000
H     41.984000    19.328000    37.398000
C     40.583000    17.780000    37.715000
H     39.845000    18.448000    38.167000
C     40.191000    16.329000    37.593000
H     40.232000    15.888000    38.607000
O     38.872000    16.246000    37.083000
H     38.291000    15.644000    37.626000
C     43.752000    18.074000    35.702000
O     44.369000    17.341000    34.898000
O     43.823000    19.328000    35.740000
