24
frame 46990 R
C     44.196000    17.030000    38.776000
H     44.673000    16.604000    37.896000
H     44.678000    17.845000    39.313000
C     43.029000    16.565000    39.238000
C     42.384000    17.133000    40.495000
O     42.935000    18.116000    41.043000
O     41.342000    16.559000    40.916000
O     42.377000    15.503000    38.648000
C     41.523000    15.726000    37.466000
H     41.158000    14.718000    37.223000
C     42.382000    16.277000    36.370000
H     43.067000    15.612000    35.841000
C     42.471000    17.609000    36.183000
C     41.571000    18.507000    36.916000
H     41.762000    19.575000    36.797000
C     40.583000    18.049000    37.705000
H     39.949000    18.754000    38.250000
C     40.292000    16.576000    37.850000
H     40.092000    16.356000    38.910000
O     39.170000    16.234000    37.048000
H     38.541000    15.653000    37.553000
C     43.615000    18.219000    35.376000
O     44.382000    17.456000    34.741000
O     43.741000    19.469000    35.473000
