24
Coordinates from ORCA-job neb_NEB-CI_converged.QMRegion
  C          44.06766193141436     17.08975391966831     38.40626575907594
  H          44.62867538580755     16.50787400028489     37.67953040678412
  H          44.46919628050961     18.04461165277474     38.73886023719112
  C          43.07186226633464     16.46761610528901     39.15738666571676
  C          42.44454873648493     17.15000797957808     40.39258132022916
  O          43.03483054470939     18.13348884597702     40.89719208902763
  O          41.39377137705634     16.61795802687374     40.84731914204664
  O          42.57864591884817     15.35149177912224     38.80133123007386
  C          41.25474327247407     15.60234612574007     37.10280003512047
  H          41.01940279012215     14.53927394367826     37.01560419545584
  C          42.24585435182105     16.15429408123553     36.31473132832808
  H          42.88638296490575     15.53380019686972     35.68723391715651
  C          42.59514004463354     17.49745370041475     36.49550110426439
  C          41.66076370163871     18.37753443001873     37.20171730993135
  H          41.90760200537257     19.43919750854371     37.21989534519214
  C          40.55795549668188     17.89856244362997     37.80046875182002
  H          39.88646427659983     18.57551217758669     38.33418237617767
  C          40.19512459453303     16.43896088314049     37.78520996384542
  H          40.09775450418591     16.10532682867629     38.82952949421514
  O          38.97091699760011     16.25838472034843     37.08436694519322
  H          38.35458592357119     15.64982921344279     37.58809745529076
  C          43.69042623484627     18.11009317188556     35.61796123176830
  O          44.37221839758480     17.33542755546821     34.90776102483017
  O          43.82358237528603     19.36075797042098     35.67308690142376
