24
frame 11630 P
C     46.415000    31.199000    61.613000
H     47.201000    30.486000    61.901000
H     46.552000    32.142000    62.148000
C     45.063000    30.650000    61.990000
C     43.931000    31.604000    62.439000
O     44.274000    32.586000    63.125000
O     42.763000    31.282000    62.105000
O     44.833000    29.454000    61.937000
C     45.018000    29.757000    58.907000
H     44.832000    28.759000    58.516000
C     46.220000    30.099000    59.377000
H     47.049000    29.388000    59.388000
C     46.484000    31.425000    60.043000
C     45.418000    32.432000    59.702000
H     45.650000    33.474000    59.929000
C     44.219000    32.082000    59.230000
H     43.462000    32.850000    59.080000
C     43.820000    30.666000    58.906000
H     43.124000    30.329000    59.699000
O     43.179000    30.597000    57.642000
H     42.219000    30.352000    57.728000
C     47.916000    31.941000    59.663000
O     48.857000    31.115000    59.673000
O     48.042000    33.157000    59.358000
