24
frame 11630 R
C     46.148000    31.118000    62.509000
H     47.051000    30.559000    62.264000
H     46.229000    32.015000    63.122000
C     44.931000    30.758000    62.085000
C     43.702000    31.579000    62.452000
O     43.904000    32.718000    62.947000
O     42.564000    31.094000    62.242000
O     44.736000    29.621000    61.314000
C     44.874000    29.760000    59.840000
H     44.653000    28.752000    59.467000
C     46.289000    30.158000    59.550000
H     47.076000    29.406000    59.635000
C     46.615000    31.457000    59.385000
C     45.558000    32.472000    59.324000
H     45.883000    33.514000    59.314000
C     44.256000    32.141000    59.306000
H     43.491000    32.919000    59.284000
C     43.790000    30.708000    59.280000
H     42.928000    30.609000    59.954000
O     43.435000    30.332000    57.955000
H     42.456000    30.170000    57.892000
C     48.066000    31.920000    59.380000
O     48.979000    31.066000    59.476000
O     48.247000    33.168000    59.300000
