24
Coordinates from ORCA-job neb_NEB-CI_converged.QMRegion
  C          46.31451250691839     31.20366520741911     62.10951106450774
  H          47.18575033707256     30.56350748082005     61.99223874952759
  H          46.44303820451203     32.19044195791361     62.54447565593590
  C          45.02365721664755     30.68132823724937     62.04581992642579
  C          43.82173764945239     31.57482627773486     62.42297168592523
  O          44.06476786988268     32.67649123527570     62.97347040470270
  O          42.66642229505063     31.15542719579511     62.16446130041525
  O          44.79331433451510     29.52386951782689     61.55913553236559
  C          44.91751771345165     29.69926668545162     59.36685085782204
  H          44.68108828857252     28.64525806282172     59.22405898704381
  C          46.23367920096777     30.11880190592914     59.40676455874522
  H          47.05541997436578     29.40102931543934     59.42522796063057
  C          46.52655306344177     31.46629565714894     59.65936523722394
  C          45.45999293815674     32.46079934275562     59.53678908868004
  H          45.74794022671495     33.50658840447933     59.65557092727294
  C          44.19304700885441     32.09160856812282     59.29293696533778
  H          43.40735477086483     32.84363188791907     59.22717714535242
  C          43.77499070977619     30.65809889698356     59.11499861344112
  H          42.98608175422232     30.45002676837414     59.85207338582332
  O          43.29806259853812     30.44316636507289     57.79000691946590
  H          42.32152844800055     30.22798274218705     57.78927031312424
  C          47.97665594015773     31.94640962976344     59.56081517326120
  O          48.89794558483692     31.10056189344393     59.62522976097674
  O          48.14605600602865     33.18100179528533     59.35811026999076
