24
frame 15825 P
C     47.182000    28.274000    60.788000
H     47.818000    27.422000    61.070000
H     47.664000    29.187000    61.158000
C     45.852000    28.044000    61.480000
C     44.832000    29.154000    61.849000
O     45.267000    30.151000    62.461000
O     43.630000    28.885000    61.586000
O     45.551000    26.909000    61.792000
C     45.079000    26.821000    58.641000
H     44.584000    25.851000    58.565000
C     46.378000    26.899000    58.940000
H     46.962000    26.009000    59.169000
C     47.085000    28.202000    59.198000
C     46.303000    29.333000    58.580000
H     46.861000    30.232000    58.319000
C     45.015000    29.258000    58.241000
H     44.525000    30.120000    57.778000
C     44.189000    28.013000    58.384000
H     43.507000    28.147000    59.248000
O     43.441000    27.842000    57.191000
H     42.521000    27.513000    57.395000
C     48.586000    28.235000    58.666000
O     49.334000    27.274000    58.972000
O     48.924000    29.254000    58.014000
