24
frame 15825 R
C     46.871000    28.542000    61.702000
H     47.660000    27.888000    61.330000
H     47.117000    29.414000    62.309000
C     45.578000    28.316000    61.432000
C     44.464000    29.211000    61.967000
O     44.799000    30.248000    62.582000
O     43.287000    28.824000    61.738000
O     45.146000    27.228000    60.712000
C     45.260000    27.231000    59.250000
H     44.823000    26.264000    58.962000
C     46.711000    27.275000    58.905000
H     47.332000    26.427000    59.196000
C     47.293000    28.370000    58.386000
C     46.472000    29.551000    58.093000
H     47.008000    30.448000    57.775000
C     45.137000    29.563000    58.257000
H     44.570000    30.482000    58.079000
C     44.362000    28.316000    58.600000
H     43.584000    28.550000    59.347000
O     43.774000    27.838000    57.397000
H     42.846000    27.511000    57.554000
C     48.806000    28.434000    58.184000
O     49.503000    27.517000    58.693000
O     49.227000    29.423000    57.526000
