24
Coordinates from ORCA-job neb_NEB-CI_converged.QMRegion
  C          47.12800842719394     28.42164400948455     61.25936204005439
  H          47.80223579072728     27.57566563519038     61.13521066875740
  H          47.55032623184950     29.34319417275807     61.65869579749111
  C          45.75528993978636     28.15404577386621     61.44726740401433
  C          44.72223254895621     29.21401184665421     61.91166727569997
  O          45.12967326142286     30.21958236853728     62.53415538760343
  O          43.51887688115149     28.92097485855352     61.66288509661340
  O          45.28536045383861     27.02913247693386     61.15155560739989
  C          45.14035292603213     26.95777264543440     58.78474024069661
  H          44.64890791928676     25.98575271251973     58.83756211783481
  C          46.50234389575641     27.04821847641034     58.84277323651690
  H          47.11542284198107     26.18196746597956     59.07675404271315
  C          47.14587554023618     28.30301709996517     58.81112807843081
  C          46.35041509327026     29.45519168101594     58.38109001170491
  H          46.89268152890080     30.36932737678943     58.13735116926734
  C          45.01664364050533     29.39072783321418     58.24543361553435
  H          44.45352461565354     30.27422490490134     57.93467797256178
  C          44.24215853796058     28.12145692645012     58.44993096004050
  H          43.55413116763437     28.26666969568183     59.30634825594094
  O          43.52932791344601     27.85488858135927     57.25076089870768
  H          42.60413464004186     27.51485756058610     57.44105727921923
  C          48.66662785930580     28.35094101395556     58.55045075824867
  O          49.37379815244079     27.38096422006960     58.92104567144695
  O          49.05808716860169     29.36009091317452     57.90808761935922
