24
frame 19185 P
C     47.932000    29.568000    56.927000
H     48.904000    29.084000    57.099000
H     47.927000    30.570000    57.371000
C     46.854000    28.707000    57.522000
C     45.548000    29.358000    58.067000
O     45.575000    30.596000    58.286000
O     44.583000    28.597000    58.261000
O     46.979000    27.498000    57.540000
C     46.755000    27.630000    54.356000
H     46.851000    26.623000    53.952000
C     47.829000    28.330000    54.736000
H     48.832000    27.905000    54.656000
C     47.743000    29.695000    55.357000
C     46.391000    30.319000    55.103000
H     46.302000    31.394000    55.254000
C     45.310000    29.607000    54.772000
H     44.333000    30.094000    54.736000
C     45.345000    28.143000    54.428000
H     44.803000    27.576000    55.213000
O     44.741000    27.921000    53.162000
H     43.765000    27.699000    53.272000
C     48.938000    30.625000    54.965000
O     50.033000    30.073000    54.682000
O     48.721000    31.857000    55.064000
