24
frame 19185 R
C     47.964000    29.467000    57.600000
H     48.887000    29.074000    57.175000
H     47.988000    30.378000    58.197000
C     46.783000    28.881000    57.363000
C     45.484000    29.438000    57.935000
O     45.501000    30.630000    58.344000
O     44.489000    28.681000    57.971000
O     46.686000    27.728000    56.614000
C     46.576000    27.852000    55.143000
H     46.521000    26.812000    54.795000
C     47.812000    28.539000    54.661000
H     48.752000    27.986000    54.633000
C     47.828000    29.880000    54.524000
C     46.581000    30.646000    54.635000
H     46.675000    31.733000    54.600000
C     45.391000    30.045000    54.804000
H     44.479000    30.630000    54.939000
C     45.260000    28.544000    54.752000
H     44.503000    28.222000    55.482000
O     44.900000    28.146000    53.436000
H     43.965000    27.778000    53.442000
C     49.143000    30.647000    54.510000
O     50.224000    30.014000    54.397000
O     49.026000    31.885000    54.697000
