24
Coordinates from ORCA-job neb_NEB-CI_converged.QMRegion
  C          47.99585318435635     29.55206707702956     57.27537849283036
  H          48.93581931525739     29.08477646021229     56.99332964067664
  H          48.00870226379867     30.56938338837497     57.66101280179336
  C          46.83948440662884     28.78812993785942     57.36494252245440
  C          45.54114793770209     29.40520566656706     57.91807654949240
  O          45.56867625690563     30.61119486000233     58.28683473663146
  O          44.53784064858509     28.66350626062107     57.98655878486250
  O          46.78456437412676     27.60970245392161     56.87275560614388
  C          46.64115319765823     27.71186618282357     54.75982100337476
  H          46.67058849194892     26.63073163169549     54.61936965245410
  C          47.79210790726660     28.46675816105607     54.61080119092200
  H          48.77179973060269     27.99545681697689     54.52700458097116
  C          47.74146561055043     29.83579900736369     54.87473799095415
  C          46.44407607947799     30.51327650399517     54.89517862592823
  H          46.45889866872010     31.60054084551789     54.97077869843971
  C          45.29509313916246     29.82334587804749     54.82889023532813
  H          44.32998595651659     30.32949302342970     54.89193854118540
  C          45.27161223658639     28.33426937410963     54.62538664375788
  H          44.59992779349397     27.88607810651544     55.37156396251532
  O          44.83094260830261     28.04181228546572     53.30206334305913
  H          43.87361749669433     27.72014592691385     53.32791834100120
  C          49.01004198791439     30.68157696855601     54.82464912641971
  O          50.10579077792987     30.08413676282639     54.66019126577958
  O          48.84202448424651     31.91745776949654     54.97493226900674
