24
frame 02450 P
C     57.775000    32.369000    57.016000
H     58.365000    31.769000    57.723000
H     58.365000    33.223000    56.678000
C     56.599000    32.960000    57.765000
C     55.995000    34.355000    57.394000
O     56.775000    35.255000    57.007000
O     54.759000    34.477000    57.563000
O     56.110000    32.357000    58.696000
C     55.126000    30.416000    56.434000
H     54.530000    29.625000    56.892000
C     56.458000    30.339000    56.404000
H     56.998000    29.502000    56.848000
C     57.320000    31.429000    55.820000
C     56.539000    32.276000    54.854000
H     57.127000    32.817000    54.114000
C     55.210000    32.383000    54.910000
H     54.691000    33.082000    54.252000
C     54.348000    31.563000    55.839000
H     53.993000    32.229000    56.648000
O     53.242000    31.054000    55.117000
H     52.370000    31.266000    55.587000
C     58.578000    30.772000    55.129000
O     59.129000    29.829000    55.728000
O     58.950000    31.218000    54.011000
