24
frame 02450 R
C     57.899000    33.042000    57.801000
H     58.349000    32.076000    58.037000
H     58.544000    33.901000    57.626000
C     56.572000    33.197000    57.722000
C     55.922000    34.545000    57.419000
O     56.664000    35.482000    57.038000
O     54.676000    34.632000    57.572000
O     55.717000    32.149000    57.973000
C     55.359000    31.226000    56.883000
H     54.718000    30.482000    57.377000
C     56.606000    30.590000    56.350000
H     57.090000    29.802000    56.928000
C     57.214000    31.073000    55.249000
C     56.583000    32.158000    54.490000
H     57.179000    32.585000    53.682000
C     55.350000    32.612000    54.777000
H     54.930000    33.450000    54.215000
C     54.495000    31.957000    55.833000
H     53.937000    32.733000    56.379000
O     53.602000    31.052000    55.203000
H     52.688000    31.141000    55.617000
C     58.609000    30.613000    54.835000
O     59.205000    29.780000    55.550000
O     59.088000    31.155000    53.801000
