24
Coordinates from ORCA-job neb_NEB-CI_converged.QMRegion
  C          57.88125413504248     32.72011754428186     57.35084360951218
  H          58.35181060560267     31.84520855999455     57.79789923532333
  H          58.50731020786204     33.52556843833669     56.96949686668047
  C          56.57098352332932     33.05844764559579     57.72911216111606
  C          55.96395333508803     34.44730129902525     57.38362109777248
  O          56.72773388635828     35.36083390960157     56.98502754506083
  O          54.72508172200787     34.57761857685200     57.56026266878875
  O          55.80569268825386     32.21241143998611     58.26375249008137
  C          55.15840675650543     30.75739099951337     56.65591929542453
  H          54.56968624986366     30.13047919550267     57.32872304701879
  C          56.45641350421296     30.42293409562376     56.36364597895152
  H          56.95433585415267     29.58774835885744     56.85441653659084
  C          57.23496272593889     31.26255718970451     55.54205653970340
  C          56.55001886756620     32.25830572431622     54.71874969564217
  H          57.15845502197605     32.75318081956878     53.96106968032828
  C          55.24230256068930     32.51566673163553     54.87102900634373
  H          54.76399252741215     33.28502633994518     54.26196689224718
  C          54.37704631148423     31.76809274458071     55.84931728787642
  H          53.91772847392706     32.49968198930370     56.53405749534579
  O          53.37900544112964     31.06103571508335     55.12877925710244
  H          52.47350577549335     31.19296484703108     55.57126244833501
  C          58.58685745171008     30.72400581460792     55.05225044649758
  O          59.12172143325205     29.81902045133021     55.72061103651679
  O          59.03649487112645     31.19181717698607     53.96993115367349
