24
frame 04085 P
C     53.216000    29.976000    60.830000
H     53.828000    29.506000    61.615000
H     53.569000    30.982000    60.579000
C     51.857000    30.261000    61.431000
C     51.181000    31.654000    61.169000
O     51.890000    32.573000    60.686000
O     49.975000    31.752000    61.461000
O     51.289000    29.447000    62.124000
C     50.881000    28.213000    59.263000
H     50.096000    27.473000    59.434000
C     52.129000    28.016000    59.690000
H     52.419000    27.124000    60.243000
C     53.201000    29.056000    59.525000
C     52.877000    30.000000    58.396000
H     53.737000    30.533000    57.986000
C     51.627000    30.218000    57.984000
H     51.406000    30.975000    57.226000
C     50.447000    29.452000    58.526000
H     49.887000    30.106000    59.228000
O     49.606000    29.080000    57.451000
H     48.649000    29.350000    57.647000
C     54.615000    28.350000    59.281000
O     54.800000    27.224000    59.800000
O     55.453000    28.958000    58.573000
