24
frame 04085 R
C     53.016000    30.448000    61.832000
H     53.463000    29.481000    62.067000
H     53.595000    31.356000    62.011000
C     51.761000    30.537000    61.381000
C     51.058000    31.858000    61.116000
O     51.769000    32.857000    60.828000
O     49.811000    31.870000    61.189000
O     50.980000    29.413000    61.200000
C     51.016000    28.777000    59.881000
H     50.215000    28.026000    59.932000
C     52.353000    28.128000    59.725000
H     52.571000    27.230000    60.304000
C     53.341000    28.705000    59.014000
C     53.075000    29.940000    58.267000
H     53.947000    30.417000    57.812000
C     51.835000    30.450000    58.157000
H     51.647000    31.366000    57.587000
C     50.633000    29.751000    58.743000
H     49.943000    30.492000    59.178000
O     49.977000    29.035000    57.701000
H     48.986000    29.186000    57.796000
C     54.763000    28.143000    59.076000
O     54.927000    27.068000    59.707000
O     55.669000    28.819000    58.529000
