24
Coordinates from ORCA-job neb_NEB-CI_converged.QMRegion
  C          53.18098340527293     30.22498907772740     61.39003463490435
  H          53.64286535328083     29.36467563159098     61.86747534033499
  H          53.73838698038340     31.15882991425617     61.33493031663364
  C          51.78691994446780     30.37487610522314     61.42642638970194
  C          51.12836275513661     31.74772034232061     61.13397360072928
  O          51.84837502440987     32.70274423355462     60.73452809924309
  O          49.89380295566949     31.82085145255159     61.30652599412362
  O          51.02100734647493     29.38881782035995     61.58902919003381
  C          50.92447646540900     28.42470623375512     59.49983957160098
  H          50.10702740685723     27.75791004636352     59.78232906656439
  C          52.22824760443400     28.04891052774366     59.67470556108229
  H          52.49232856038393     27.13626097802074     60.20368422204394
  C          53.27950682758308     28.91357683255579     59.31058595012934
  C          52.97717486490756     30.05125793089433     58.44042098183240
  H          53.84291202763441     30.58827746411180     58.05042575726062
  C          51.71267047120217     30.37782890778288     58.12840058690253
  H          51.48638081475011     31.22386445861872     57.47290713675405
  C          50.53039762137428     29.60318438547681     58.64378619957336
  H          49.89566690584973     30.27472357394197     59.25074693991575
  O          49.79172852753798     29.10941296401525     57.53369528074379
  H          48.80407614822469     29.29215144938888     57.68193429841170
  C          54.69912133031058     28.29576380704119     59.23702605643630
  O          54.87184700397265     27.18261085182952     59.78995773061024
  O          55.55606387983030     28.91409857165544     58.56088073893738
