24
frame 10775 P
C     48.075000    30.045000    62.119000
H     48.791000    29.232000    62.283000
H     48.340000    30.915000    62.726000
C     46.728000    29.493000    62.535000
C     45.626000    30.430000    63.109000
O     45.970000    31.583000    63.470000
O     44.475000    29.959000    63.157000
O     46.487000    28.309000    62.405000
C     46.627000    28.870000    59.417000
H     46.396000    27.907000    58.968000
C     47.864000    29.193000    59.807000
H     48.704000    28.502000    59.701000
C     48.146000    30.450000    60.589000
C     47.089000    31.493000    60.324000
H     47.356000    32.524000    60.554000
C     45.863000    31.180000    59.893000
H     45.108000    31.960000    59.791000
C     45.431000    29.776000    59.555000
H     44.795000    29.406000    60.383000
O     44.695000    29.748000    58.343000
H     43.767000    29.406000    58.494000
C     49.609000    30.990000    60.365000
O     50.542000    30.147000    60.298000
O     49.791000    32.229000    60.333000
