24
frame 10775 R
C     47.828000    29.430000    63.400000
H     48.578000    28.669000    63.181000
H     48.029000    30.174000    64.170000
C     46.650000    29.450000    62.768000
C     45.558000    30.445000    63.134000
O     45.902000    31.550000    63.626000
O     44.373000    30.085000    62.940000
O     46.341000    28.486000    61.825000
C     46.505000    28.814000    60.401000
H     46.292000    27.862000    59.896000
C     47.929000    29.247000    60.184000
H     48.729000    28.501000    60.204000
C     48.265000    30.553000    60.144000
C     47.205000    31.568000    60.129000
H     47.526000    32.608000    60.187000
C     45.903000    31.241000    60.039000
H     45.143000    32.025000    60.024000
C     45.421000    29.819000    59.936000
H     44.584000    29.690000    60.639000
O     44.995000    29.548000    58.605000
H     44.053000    29.223000    58.622000
C     49.719000    31.014000    60.223000
O     50.644000    30.161000    60.228000
O     49.908000    32.253000    60.331000
