24
Coordinates from ORCA-job neb_NEB-CI_converged.QMRegion
  C          48.04654094898411     29.83085397923315     62.61730310639494
  H          48.77114026200576     29.05513849134162     62.38854541389985
  H          48.38101871658498     30.72286579583106     63.13350715708018
  C          46.70396610924887     29.50050484317763     62.53691271837619
  C          45.61104996086291     30.45223820896848     63.05317764991457
  O          45.95804306175960     31.56730715989582     63.52567278835158
  O          44.42782311853041     30.05527767290588     62.97111539790844
  O          46.34966479284115     28.44957435355537     61.89228640771088
  C          46.51714753545723     28.79649397115765     59.86404707005190
  H          46.26453744660449     27.76881404510334     59.60583309512819
  C          47.84620176849111     29.21435682944291     59.85633830062343
  H          48.66650766546326     28.50065049761958     59.75749799566236
  C          48.16072968148035     30.50995765077329     60.27611470211318
  C          47.09319730373603     31.51511973607246     60.27217547046571
  H          47.38032854958486     32.54274128278328     60.49246818082307
  C          45.81802785283531     31.18706861811249     60.00084379893394
  H          45.04211160216667     31.95425504751886     59.99288745625400
  C          45.36960785009794     29.77824797579704     59.72639153385823
  H          44.61204453332385     29.51800718373940     60.48247942424868
  O          44.81895561985351     29.66931667168351     58.41952070597275
  H          43.88583935245496     29.30564538702882     58.48322973617839
  C          49.62192424368798     30.98710454099047     60.31008783748150
  O          50.54157277128621     30.12845367512802     60.28009802542527
  O          49.82453493907979     32.22560154206858     60.35642963347362
