24
frame 50892 P
C     40.457000    20.860000    46.731000
H     41.482000    20.467000    46.791000
H     40.472000    21.941000    46.890000
C     39.659000    20.194000    47.823000
C     38.548000    20.942000    48.599000
O     38.813000    22.102000    48.975000
O     37.506000    20.280000    48.833000
O     39.898000    19.039000    48.122000
C     38.670000    18.342000    45.420000
H     38.638000    17.250000    45.396000
C     39.804000    19.004000    45.177000
H     40.738000    18.485000    44.967000
C     39.903000    20.505000    45.281000
C     38.543000    21.135000    45.111000
H     38.499000    22.179000    44.804000
C     37.412000    20.473000    45.365000
H     36.455000    20.993000    45.301000
C     37.356000    19.013000    45.728000
H     37.143000    18.947000    46.812000
O     36.329000    18.379000    44.988000
H     35.674000    17.898000    45.587000
C     40.995000    21.056000    44.293000
O     41.979000    20.304000    44.104000
O     40.899000    22.226000    43.835000
