24
frame 50892 R
C     40.564000    21.023000    47.591000
H     41.377000    20.618000    46.988000
H     40.636000    22.038000    47.978000
C     39.456000    20.326000    47.868000
C     38.331000    20.913000    48.718000
O     38.485000    22.078000    49.140000
O     37.329000    20.177000    48.934000
O     39.279000    19.028000    47.428000
C     38.783000    18.808000    46.062000
H     38.691000    17.715000    45.993000
C     39.822000    19.324000    45.119000
H     40.766000    18.782000    45.032000
C     39.706000    20.541000    44.550000
C     38.464000    21.302000    44.719000
H     38.446000    22.319000    44.328000
C     37.398000    20.800000    45.366000
H     36.509000    21.419000    45.512000
C     37.364000    19.381000    45.873000
H     36.882000    19.356000    46.862000
O     36.649000    18.582000    44.940000
H     36.000000    17.988000    45.432000
C     40.935000    21.190000    43.926000
O     41.994000    20.514000    43.919000
O     40.850000    22.387000    43.539000
