24
Coordinates from ORCA-job neb_NEB-CI_converged.QMRegion
  C          40.60878192757408     20.97401265990148     47.13745882113923
  H          41.48691721837115     20.45831467606300     46.75483846979933
  H          40.64916406183032     22.05348279719959     47.27049509626124
  C          39.61564486388240     20.24423889725250     47.79540528199030
  C          38.50021164035584     20.94973414950059     48.60180822877919
  O          38.72799620736212     22.10984339833058     49.00825508544752
  O          37.45948926681541     20.27320328091272     48.83020241357497
  O          39.54791402580211     18.98190017703624     47.67820648172412
  C          38.68878804865590     18.49300474495209     45.70221871563538
  H          38.70467442440793     17.41711853725426     45.88627574975051
  C          39.74855020100441     19.10231245918781     45.06848990870225
  H          40.67474290294333     18.56310259365988     44.87963382130076
  C          39.74520897871524     20.49188713695855     44.87597139539685
  C          38.46941024796432     21.20285198450612     44.97853969328329
  H          38.43735090600597     22.24514731941988     44.66662910749413
  C          37.36565189804355     20.59575711292222     45.44495031255946
  H          36.43646549005435     21.15920598396491     45.55263919544697
  C          37.33487577255021     19.14491078124977     45.83382654764468
  H          37.00428326294752     19.07507102741011     46.88179515077562
  O          36.44276348548862     18.45307889781216     44.96912503432217
  H          35.77404196864003     17.90897804662507     45.50429789706791
  C          40.95094728060948     21.11156083214819     44.16710700993799
  O          41.97156251645818     20.38557878156618     44.08302244182529
  O          40.87864675308439     22.29324305312122     43.73256347968096
