24
frame 08170 P
C     48.226000    26.288000    67.285000
H     48.580000    25.496000    67.958000
H     48.713000    27.233000    67.526000
C     46.746000    26.443000    67.519000
C     46.038000    27.813000    67.304000
O     46.671000    28.869000    67.539000
O     44.847000    27.742000    66.934000
O     46.073000    25.491000    67.863000
C     46.558000    24.656000    64.905000
H     45.934000    23.766000    64.826000
C     47.738000    24.617000    65.525000
H     48.125000    23.703000    65.977000
C     48.548000    25.854000    65.794000
C     48.158000    26.976000    64.867000
H     48.893000    27.779000    64.788000
C     47.004000    26.996000    64.192000
H     46.753000    27.838000    63.539000
C     45.980000    25.896000    64.275000
H     45.149000    26.263000    64.910000
O     45.496000    25.603000    62.979000
H     44.500000    25.420000    63.027000
C     50.092000    25.549000    65.708000
O     50.500000    24.442000    66.123000
O     50.847000    26.451000    65.257000
