24
frame 08170 R
C     47.813000    26.378000    68.235000
H     48.270000    25.394000    68.343000
H     48.308000    27.226000    68.696000
C     46.670000    26.535000    67.559000
C     45.961000    27.873000    67.389000
O     46.595000    28.935000    67.608000
O     44.755000    27.822000    67.035000
O     46.034000    25.439000    67.010000
C     46.437000    24.998000    65.665000
H     45.852000    24.082000    65.514000
C     47.909000    24.707000    65.681000
H     48.267000    23.810000    66.188000
C     48.803000    25.615000    65.243000
C     48.326000    26.851000    64.614000
H     49.099000    27.588000    64.388000
C     47.028000    27.056000    64.322000
H     46.704000    27.980000    63.832000
C     45.970000    26.017000    64.598000
H     45.090000    26.517000    65.033000
O     45.624000    25.376000    63.382000
H     44.622000    25.243000    63.347000
C     50.298000    25.450000    65.499000
O     50.717000    24.406000    66.055000
O     51.030000    26.423000    65.168000
