24
frame 36665 P
C     45.492000    19.245000    40.729000
H     46.344000    18.583000    40.520000
H     45.829000    20.288000    40.791000
C     44.870000    18.789000    42.027000
C     44.259000    19.815000    43.030000
O     44.588000    21.020000    42.912000
O     43.483000    19.350000    43.889000
O     44.784000    17.600000    42.268000
C     42.715000    17.362000    40.019000
H     42.382000    16.325000    39.985000
C     43.883000    17.727000    39.483000
H     44.520000    16.999000    38.975000
C     44.422000    19.126000    39.561000
C     43.336000    20.113000    39.921000
H     43.596000    21.164000    39.787000
C     42.180000    19.749000    40.481000
H     41.486000    20.507000    40.850000
C     41.764000    18.317000    40.688000
H     41.758000    18.122000    41.777000
O     40.461000    18.100000    40.160000
H     39.799000    17.900000    40.895000
C     45.156000    19.532000    38.238000
O     45.647000    18.632000    37.509000
O     45.208000    20.757000    38.004000
