24
frame 36665 R
C     45.950000    19.075000    41.504000
H     46.429000    18.346000    40.852000
H     46.460000    20.015000    41.719000
C     44.759000    18.848000    42.068000
C     44.130000    19.837000    43.041000
O     44.549000    21.025000    43.027000
O     43.246000    19.397000    43.815000
O     44.070000    17.668000    41.848000
C     43.145000    17.597000    40.699000
H     42.771000    16.564000    40.731000
C     43.922000    17.859000    39.445000
H     44.525000    17.063000    39.003000
C     44.022000    19.114000    38.964000
C     43.222000    20.190000    39.566000
H     43.457000    21.203000    39.236000
C     42.272000    19.942000    40.483000
H     41.698000    20.756000    40.931000
C     41.940000    18.536000    40.909000
H     41.729000    18.540000    41.987000
O     40.813000    18.060000    40.178000
H     40.074000    17.822000    40.814000
C     45.036000    19.498000    37.894000
O     45.684000    18.597000    37.294000
O     45.164000    20.734000    37.721000
