24
Coordinates from ORCA-job neb_NEB-CI_converged.QMRegion
  C          45.76558467783154     19.19287970768582     41.11350558276773
  H          46.31969829273049     18.43668952193236     40.56504513152701
  H          46.13597619187088     20.21746276052289     41.12121523195211
  C          44.78752997889505     18.80440253693165     42.02078536871021
  C          44.17092233790443     19.82820433026795     42.99236020474120
  O          44.56820731566866     21.02325897771344     42.94046008263513
  O          43.31509970249285     19.39669232158804     43.79911132818615
  O          44.28949964424567     17.62510663056200     42.00471931790207
  C          42.89654188021082     17.45583828196488     40.40036684415258
  H          42.66854967048591     16.40802875815562     40.60384635975111
  C          43.81390340770078     17.78468590494368     39.41472080531032
  H          44.40847072029940     17.02241863155188     38.90901606463833
  C          44.15004568992276     19.12250946115121     39.21719908496831
  C          43.29471645322031     20.16863956939556     39.78354292894318
  H          43.58158565070968     21.19818926229126     39.56657429673085
  C          42.23135801264861     19.86491343494214     40.54424737240222
  H          41.61004748492393     20.64932183148121     40.98015741736327
  C          41.84445713816391     18.44612588224188     40.85156976480795
  H          41.71072218067606     18.35833556893579     41.93866236262722
  O          40.63317348107297     18.11374122519101     40.17150993102402
  H          39.92007879972051     17.86288748120856     40.84126538844642
  C          45.12218441186705     19.51531211404635     38.10665594434185
  O          45.67239288799707     18.60827703492845     37.42616795958812
  O          45.25644966699563     20.74544131088446     37.92497151340604
