24
frame 43087 P
C     45.577000    21.701000    36.966000
H     46.418000    21.042000    36.710000
H     45.945000    22.729000    37.061000
C     44.977000    21.201000    38.245000
C     44.489000    22.141000    39.389000
O     44.846000    23.348000    39.379000
O     43.788000    21.583000    40.256000
O     44.819000    20.004000    38.393000
C     42.739000    19.959000    36.266000
H     42.311000    18.954000    36.226000
C     43.917000    20.233000    35.693000
H     44.492000    19.466000    35.174000
C     44.543000    21.604000    35.761000
C     43.478000    22.654000    35.975000
H     43.733000    23.670000    35.663000
C     42.301000    22.379000    36.549000
H     41.564000    23.168000    36.732000
C     41.931000    20.991000    37.016000
H     42.199000    20.932000    38.095000
O     40.540000    20.806000    36.874000
H     40.242000    19.898000    37.231000
C     45.448000    21.857000    34.495000
O     46.210000    20.911000    34.175000
O     45.395000    22.981000    33.952000
