24
frame 43087 R
C     46.021000    21.722000    37.479000
H     46.390000    21.146000    36.630000
H     46.544000    22.640000    37.752000
C     44.938000    21.361000    38.181000
C     44.442000    22.175000    39.371000
O     44.831000    23.372000    39.479000
O     43.686000    21.585000    40.177000
O     44.250000    20.189000    37.947000
C     43.257000    20.126000    36.843000
H     42.856000    19.106000    36.917000
C     44.034000    20.322000    35.591000
H     44.670000    19.507000    35.243000
C     44.167000    21.550000    35.057000
C     43.317000    22.641000    35.551000
H     43.507000    23.631000    35.130000
C     42.364000    22.456000    36.485000
H     41.742000    23.293000    36.821000
C     42.086000    21.103000    37.095000
H     42.028000    21.217000    38.195000
O     40.861000    20.620000    36.574000
H     40.501000    19.817000    37.081000
C     45.290000    21.816000    34.057000
O     46.211000    20.955000    34.015000
O     45.247000    22.883000    33.401000
