24
Coordinates from ORCA-job neb_NEB-CI_converged.QMRegion
  C          45.92072067570797     21.66291767947924     37.27908166153095
  H          46.38889086535792     20.97099392560210     36.58496005881766
  H          46.34197660128752     22.66391751775218     37.36309959183255
  C          44.98281474535022     21.21546818379889     38.19302421345263
  C          44.44884927251731     22.13236108485538     39.31296038447112
  O          44.83302643138233     23.33492630652937     39.37198552469027
  O          43.67181237041330     21.58853802237823     40.13136609398524
  O          44.47127596095200     20.04140076502253     38.11597186599394
  C          42.96990604837485     19.97740391110755     36.59422060125350
  H          42.69825907716798     18.94017436296740     36.80037696238411
  C          43.90929236888542     20.25592090294290     35.61233935099116
  H          44.50090959744621     19.45701368090374     35.16626885947497
  C          44.27223317135976     21.57653857015529     35.36821498470924
  C          43.38892534493278     22.64458344442591     35.84125418554616
  H          43.63378400571545     23.65836149322028     35.51608516261801
  C          42.32400913159864     22.39254495928333     36.62588286896433
  H          41.66732903797232     23.20164986414276     36.96032928284793
  C          41.99397789958523     21.00875372456967     37.12078848303377
  H          42.09486007175688     21.02200279793892     38.22236841820033
  O          40.66649278872506     20.68788095744556     36.74318217070250
  H          40.33507371393542     19.82173196166130     37.18146442460888
  C          45.38487637876759     21.85809665246329     34.35124572958129
  O          46.19288838954365     20.92100719976368     34.12183454220042
  O          45.40362595246977     22.99799707731968     33.83323976041432
