24
frame 26495 P
C     42.885000    15.258000    60.167000
H     43.422000    14.364000    60.518000
H     43.291000    16.162000    60.639000
C     41.424000    15.123000    60.544000
C     40.588000    16.382000    60.944000
O     41.206000    17.359000    61.423000
O     39.350000    16.322000    60.788000
O     40.875000    14.037000    60.517000
C     41.175000    14.130000    57.518000
H     40.706000    13.219000    57.152000
C     42.430000    14.130000    57.973000
H     43.022000    13.212000    58.002000
C     43.067000    15.349000    58.592000
C     42.357000    16.611000    58.167000
H     42.893000    17.550000    58.310000
C     41.084000    16.600000    57.765000
H     40.546000    17.538000    57.618000
C     40.295000    15.345000    57.499000
H     39.533000    15.235000    58.299000
O     39.662000    15.408000    56.233000
H     38.768000    15.864000    56.330000
C     44.599000    15.348000    58.253000
O     45.271000    14.362000    58.662000
O     45.081000    16.313000    57.620000
