24
frame 26495 R
C     42.553000    15.330000    61.203000
H     43.194000    14.471000    61.000000
H     42.937000    16.154000    61.803000
C     41.308000    15.408000    60.719000
C     40.409000    16.597000    61.027000
O     40.960000    17.636000    61.475000
O     39.176000    16.492000    60.838000
O     40.772000    14.385000    59.959000
C     41.034000    14.417000    58.508000
H     40.492000    13.540000    58.123000
C     42.512000    14.286000    58.278000
H     42.984000    13.314000    58.443000
C     43.274000    15.371000    58.024000
C     42.638000    16.686000    57.869000
H     43.306000    17.540000    57.774000
C     41.305000    16.843000    57.887000
H     40.871000    17.846000    57.845000
C     40.369000    15.664000    57.893000
H     39.499000    15.880000    58.532000
O     39.944000    15.386000    56.566000
H     39.008000    15.740000    56.469000
C     44.800000    15.323000    58.013000
O     45.389000    14.329000    58.515000
O     45.377000    16.338000    57.549000
