24
Coordinates from ORCA-job neb_NEB-CI_converged.QMRegion
  C          42.78659067842423     15.24932161629746     60.62658001201238
  H          43.38263568320814     14.34166429599182     60.56061488338878
  H          43.24655742277114     16.16048877870891     61.00333446119583
  C          41.39810964182074     15.18531064195361     60.55771977255733
  C          40.54454095107231     16.42418302531325     60.90562656429783
  O          41.12672673614738     17.43404736879724     61.37770248639927
  O          39.30628941165516     16.36099713139895     60.72642760215178
  O          40.80852156219474     14.15110110329366     60.09258004596070
  C          41.04134563459942     14.15157943748393     57.97886228011548
  H          40.49052825660878     13.21972793365817     57.84590045508708
  C          42.42598084507201     14.14180127986181     58.01076347170030
  H          42.97461296400005     13.20025807747093     58.07079678980970
  C          43.12358287386684     15.33579562588422     58.22756039069597
  C          42.42057193466227     16.60981201989284     58.03618728188422
  H          43.01529994943427     17.52004126172949     58.10269693333676
  C          41.09646711303564     16.64707612162237     57.82772785286040
  H          40.57841836187843     17.60439242434403     57.74867558489769
  C          40.25339190049738     15.40836573325757     57.69175653541742
  H          39.42651632456069     15.46463351189719     58.41860112184536
  O          39.74340325566030     15.30460590529194     56.36821656390408
  H          38.83722402861940     15.74755852024500     56.35179767513617
  C          44.65357650646740     15.32825743282977     58.15457249211158
  O          45.28201995884156     14.33870041734224     58.61313285396919
  O          45.19084917791386     16.32507491345009     57.61445147364268
