24
frame 12485 P
C     48.118000    30.723000    58.435000
H     48.855000    29.961000    58.723000
H     48.380000    31.617000    59.020000
C     46.736000    30.204000    58.767000
C     45.640000    31.047000    59.451000
O     46.013000    31.838000    60.340000
O     44.468000    30.812000    59.073000
O     46.434000    29.059000    58.489000
C     46.803000    29.376000    55.716000
H     46.525000    28.390000    55.352000
C     48.030000    29.646000    56.178000
H     48.811000    28.881000    56.208000
C     48.339000    30.954000    56.867000
C     47.433000    32.027000    56.304000
H     47.831000    33.044000    56.297000
C     46.217000    31.767000    55.812000
H     45.586000    32.573000    55.426000
C     45.666000    30.371000    55.696000
H     45.021000    30.178000    56.576000
O     44.909000    30.247000    54.511000
H     44.031000    29.792000    54.709000
C     49.850000    31.367000    56.758000
O     50.691000    30.522000    57.163000
O     50.130000    32.512000    56.335000
