24
frame 12485 R
C     47.876000    30.538000    59.231000
H     48.767000    30.040000    58.852000
H     48.003000    31.329000    59.970000
C     46.630000    30.239000    58.835000
C     45.428000    31.010000    59.380000
O     45.662000    31.904000    60.223000
O     44.288000    30.726000    58.927000
O     46.361000    29.232000    57.929000
C     46.548000    29.490000    56.480000
H     46.267000    28.529000    56.031000
C     47.998000    29.807000    56.295000
H     48.728000    29.011000    56.465000
C     48.440000    31.075000    56.174000
C     47.475000    32.156000    55.940000
H     47.876000    33.168000    55.848000
C     46.152000    31.921000    55.855000
H     45.462000    32.751000    55.682000
C     45.543000    30.544000    55.956000
H     44.740000    30.573000    56.712000
O     45.019000    30.180000    54.692000
H     44.132000    29.718000    54.822000
C     49.910000    31.416000    56.406000
O     50.628000    30.544000    56.966000
O     50.301000    32.567000    56.088000
