24
Coordinates from ORCA-job neb_NEB-CI_converged.QMRegion
  C          48.04902128793931     30.65728353904803     58.89505459335812
  H          48.88890948160591     29.99614704676798     58.70530220806328
  H          48.27024825030058     31.55913582223274     59.46905810522762
  C          46.73104529250400     30.18620571488438     58.81775028694967
  C          45.55781600893675     31.01814404596541     59.37979051606881
  O          45.82554194242447     31.87052935159567     60.25608691703522
  O          44.40800657863448     30.76650112547853     58.93367801519939
  O          46.44075460617782     29.11276615507260     58.20508754107085
  C          46.66170032948644     29.41325694583472     56.01457302616883
  H          46.34372372048211     28.38633632002840     55.84270970540288
  C          47.99396520973496     29.72735965235508     56.17608176393224
  H          48.74897529966938     28.94206479090878     56.25656521254491
  C          48.36934673131059     31.04390167051817     56.49956548596442
  C          47.43183822061603     32.11333622904337     56.15116937008911
  H          47.82340034807145     33.13247414341905     56.15730332345955
  C          46.15488795067922     31.84989731536161     55.82043197983926
  H          45.47300653388076     32.66076039507303     55.55003731327211
  C          45.58953209666058     30.45819097370179     55.79685836172737
  H          44.88496054368830     30.37111290528760     56.64702702219654
  O          44.92629531350904     30.23068479807268     54.56846501597812
  H          44.05114239939944     29.74848097277925     54.73933365371348
  C          49.85072747067922     31.40171530323195     56.66224156025654
  O          50.62926198172638     30.51802088259083     57.10279039580669
  O          50.18875502487337     32.56245214086466     56.32456866677538
