24
frame 09900 P
C     45.377000    29.542000    66.287000
H     45.976000    28.710000    66.683000
H     45.752000    30.501000    66.668000
C     43.939000    29.365000    66.693000
C     43.046000    30.617000    66.896000
O     43.613000    31.649000    67.310000
O     41.828000    30.471000    66.626000
O     43.458000    28.254000    66.800000
C     43.696000    28.125000    63.651000
H     43.313000    27.157000    63.317000
C     44.923000    28.231000    64.173000
H     45.569000    27.358000    64.287000
C     45.480000    29.526000    64.711000
C     44.713000    30.705000    64.161000
H     45.201000    31.677000    64.222000
C     43.488000    30.592000    63.643000
H     42.963000    31.469000    63.251000
C     42.746000    29.290000    63.511000
H     42.007000    29.240000    64.336000
O     42.089000    29.282000    62.264000
H     41.162000    28.872000    62.320000
C     47.002000    29.627000    64.379000
O     47.749000    28.690000    64.731000
O     47.390000    30.671000    63.797000
