24
frame 09900 R
C     44.966000    29.666000    67.097000
H     45.675000    28.840000    67.030000
H     45.278000    30.603000    67.557000
C     43.707000    29.563000    66.656000
C     42.715000    30.711000    66.782000
O     43.170000    31.841000    67.095000
O     41.505000    30.459000    66.565000
O     43.224000    28.397000    66.087000
C     43.438000    28.193000    64.644000
H     42.994000    27.207000    64.450000
C     44.915000    28.184000    64.403000
H     45.497000    27.316000    64.718000
C     45.549000    29.312000    64.029000
C     44.774000    30.504000    63.666000
H     45.354000    31.407000    63.479000
C     43.434000    30.489000    63.596000
H     42.881000    31.394000    63.330000
C     42.641000    29.227000    63.816000
H     41.750000    29.470000    64.412000
O     42.283000    28.682000    62.559000
H     41.280000    28.569000    62.497000
C     47.060000    29.450000    64.118000
O     47.762000    28.489000    64.497000
O     47.505000    30.596000    63.830000
