24
Coordinates from ORCA-job neb_NEB-CI_converged.QMRegion
  C          45.19027676145537     29.62457537653230     66.70366843176826
  H          45.86133176169070     28.76977577519988     66.74887366122749
  H          45.56851984064865     30.60707875642442     66.98560745766534
  C          43.81527883351696     29.44745101144857     66.60768915060721
  C          42.86451093459869     30.64861965204224     66.76980809432507
  O          43.35400484417239     31.75013651562150     67.12154148626071
  O          41.64501761604145     30.43960750232428     66.55001598866170
  O          43.30355541396411     28.32788410283297     66.24806769099233
  C          43.52832450629807     28.06651005888819     64.20545411906282
  H          43.05462021411779     27.08201071048222     64.19238431999815
  C          44.91426385959782     28.16272010831378     64.23021021064685
  H          45.53926554024829     27.29080604111607     64.42072457857284
  C          45.49863766556077     29.42409955249720     64.30696856665651
  C          44.71160337233434     30.60231239791928     63.93175421872350
  H          45.24485892592234     31.55091689619299     63.90206011640512
  C          43.40818841351957     30.50364431068563     63.63771894218009
  H          42.83792434297079     31.38275110920819     63.32779721199067
  C          42.66346452586827     29.19929768983082     63.68147983038983
  H          41.80866373809869     29.32184478161030     64.36444069334860
  O          42.23337919324547     28.87781650932375     62.37324610812760
  H          41.24426391310846     28.63979269627909     62.36958481504399
  C          47.01412011833684     29.55473037174844     64.29136188654496
  O          47.72646380404984     28.59845862702532     64.65805745198008
  O          47.45416864137374     30.65208210954145     63.85473098882764
