24
frame 42436 P
C     45.175000    23.688000    37.520000
H     45.998000    23.031000    37.202000
H     45.550000    24.641000    37.886000
C     44.519000    23.099000    38.734000
C     44.136000    24.026000    39.920000
O     44.595000    25.203000    39.919000
O     43.416000    23.497000    40.783000
O     44.272000    21.919000    38.840000
C     42.246000    22.379000    36.614000
H     41.734000    21.424000    36.470000
C     43.430000    22.634000    36.054000
H     43.954000    21.902000    35.442000
C     44.177000    23.915000    36.305000
C     43.233000    25.018000    36.726000
H     43.594000    26.037000    36.581000
C     42.054000    24.764000    37.295000
H     41.398000    25.569000    37.643000
C     41.535000    23.367000    37.504000
H     41.724000    23.080000    38.562000
O     40.153000    23.387000    37.252000
H     39.715000    22.508000    37.596000
C     45.002000    24.327000    35.020000
O     45.530000    23.447000    34.316000
O     45.089000    25.566000    34.787000
