24
frame 42436 R
C     45.867000    23.445000    38.333000
H     46.290000    22.812000    37.556000
H     46.451000    24.279000    38.722000
C     44.643000    23.239000    38.827000
C     44.084000    24.098000    39.946000
O     44.552000    25.266000    40.071000
O     43.215000    23.569000    40.670000
O     43.858000    22.184000    38.423000
C     42.917000    22.397000    37.309000
H     42.424000    21.420000    37.204000
C     43.724000    22.745000    36.101000
H     44.292000    21.971000    35.584000
C     43.930000    24.033000    35.768000
C     43.214000    25.100000    36.478000
H     43.514000    26.121000    36.242000
C     42.256000    24.834000    37.382000
H     41.731000    25.644000    37.897000
C     41.823000    23.423000    37.683000
H     41.670000    23.315000    38.771000
O     40.625000    23.180000    36.971000
H     40.144000    22.361000    37.366000
C     44.989000    24.408000    34.744000
O     45.627000    23.511000    34.158000
O     45.180000    25.649000    34.594000
