24
Coordinates from ORCA-job neb_NEB-CI_converged.QMRegion
  C          45.58346659638297     23.55643613663983     37.91936574070245
  H          46.08491667224440     22.87008405672431     37.24826161663969
  H          46.06909594020762     24.47501677808557     38.22922943802124
  C          44.58226433699767     23.11403087456953     38.78091868144701
  C          44.09917151642663     24.04291832308940     39.90983043644582
  O          44.57938112266857     25.21486628947340     39.96790733132361
  O          43.26680217707115     23.55012138425642     40.69590897294254
  O          43.97147561189458     22.02349647031874     38.61270832685288
  C          42.50543948877126     22.35784799899152     36.93900009597007
  H          42.11821450124843     21.33763099270541     36.98210592048389
  C          43.51892910904855     22.68513863474239     36.07307510977806
  H          44.04011794201292     21.93296988054862     35.48476912888449
  C          44.05057763920514     23.98650841509819     36.06974970411760
  C          43.28299441505355     25.05770357968140     36.70900194073099
  H          43.64747131128809     26.07346540688432     36.56263071132805
  C          42.17954354582974     24.79433853138443     37.42657627808852
  H          41.59839624587691     25.59870096898598     37.88616630373438
  C          41.65853394058581     23.40091708519295     37.63055719019216
  H          41.66565432473034     23.18304161284132     38.71442783428271
  O          40.34208833690769     23.35634418901454     37.11691437954568
  H          39.84703740437123     22.52989462172152     37.49662055822250
  C          45.01982235420716     24.36575383896491     34.93936412592240
  O          45.58092080444042     23.47360420125176     34.27507316938298
  O          45.14165909878950     25.60545710056990     34.72539374185224
