24
frame 53493 P
C     41.214000    20.992000    45.703000
H     42.200000    20.503000    45.695000
H     41.324000    22.066000    45.868000
C     40.400000    20.418000    46.835000
C     39.295000    21.286000    47.495000
O     39.575000    22.490000    47.666000
O     38.232000    20.696000    47.820000
O     40.592000    19.280000    47.222000
C     39.286000    18.528000    44.455000
H     39.262000    17.438000    44.437000
C     40.413000    19.194000    44.190000
H     41.345000    18.675000    43.966000
C     40.525000    20.692000    44.305000
C     39.163000    21.337000    44.254000
H     39.133000    22.397000    44.006000
C     38.031000    20.671000    44.498000
H     37.069000    21.193000    44.478000
C     37.979000    19.195000    44.791000
H     37.776000    19.080000    45.872000
O     36.938000    18.599000    44.038000
H     36.341000    18.034000    44.624000
C     41.488000    21.260000    43.203000
O     42.544000    20.621000    42.991000
O     41.164000    22.328000    42.623000
