24
frame 53493 R
C     41.394000    21.032000    46.699000
H     42.190000    20.479000    46.198000
H     41.565000    22.061000    47.011000
C     40.186000    20.499000    46.914000
C     39.072000    21.298000    47.586000
O     39.312000    22.497000    47.840000
O     37.992000    20.689000    47.830000
O     39.899000    19.196000    46.561000
C     39.429000    18.894000    45.197000
H     39.381000    17.797000    45.182000
C     40.452000    19.409000    44.236000
H     41.398000    18.876000    44.127000
C     40.305000    20.617000    43.658000
C     39.056000    21.367000    43.844000
H     39.028000    22.385000    43.450000
C     37.991000    20.834000    44.467000
H     37.071000    21.415000    44.576000
C     37.993000    19.412000    44.966000
H     37.491000    19.385000    45.943000
O     37.314000    18.588000    44.028000
H     36.654000    18.006000    44.518000
C     41.459000    21.273000    42.913000
O     42.551000    20.661000    42.840000
O     41.237000    22.427000    42.454000
