24
Coordinates from ORCA-job neb_NEB-CI_converged.QMRegion
  C          41.33057015982755     21.11155532237057     46.14081354685680
  H          42.17313398157327     20.54303685012918     45.75015558327747
  H          41.41294855042007     22.19192779878642     46.22826695992487
  C          40.29134839101329     20.47249301778634     46.81356721964871
  C          39.19635516696256     21.32283122582479     47.49702442274479
  O          39.46033635494121     22.52494023888915     47.71539533321366
  O          38.11654092056114     20.73554691476632     47.79319441761170
  O          40.14265803535370     19.20798778775298     46.76642328878211
  C          39.33634356289149     18.64647081765166     44.83006153222507
  H          39.37958770822298     17.57979567198975     45.05373748042508
  C          40.37219163911502     19.25356640020079     44.14785059983926
  H          41.30618433383340     18.72963384398712     43.95193953635640
  C          40.34306996931797     20.63331600113993     43.92643255742654
  C          39.07197293278304     21.34477110883535     44.07608040135111
  H          39.04862192563768     22.39381226267428     43.78125263132399
  C          37.97271796277470     20.72253212935380     44.53318009937447
  H          37.02704740505551     21.26331232779190     44.61988618585318
  C          37.96081354104495     19.26835220277844     44.91130797721738
  H          37.59717428809292     19.19276527922050     45.94627007527360
  O          37.10545411496101     18.55960371035783     44.02248150129486
  H          36.47222261687141     17.96892209085405     44.55349578425382
  C          41.46041917274381     21.26793514274627     43.09945364279997
  O          42.53380171985484     20.63265946248892     42.97592465775032
  O          41.20739241167012     22.38223095335209     42.56727424909823
