24
frame 07310 P
C     46.539000    23.616000    65.393000
H     46.900000    22.761000    65.984000
H     47.209000    24.478000    65.519000
C     45.136000    23.945000    65.845000
C     44.609000    25.401000    65.796000
O     45.401000    26.288000    66.168000
O     43.418000    25.550000    65.421000
O     44.395000    23.050000    66.207000
C     44.238000    22.446000    63.132000
H     43.460000    21.683000    63.041000
C     45.427000    22.151000    63.665000
H     45.650000    21.151000    64.040000
C     46.515000    23.173000    63.873000
C     46.264000    24.405000    63.043000
H     47.109000    25.084000    62.921000
C     45.070000    24.705000    62.521000
H     44.929000    25.641000    61.971000
C     43.858000    23.816000    62.632000
H     43.164000    24.277000    63.361000
O     43.232000    23.712000    61.364000
H     42.255000    23.928000    61.420000
C     47.909000    22.505000    63.574000
O     48.159000    21.428000    64.170000
O     48.676000    23.090000    62.774000
