24
frame 07310 R
C     46.198000    24.002000    66.118000
H     46.675000    23.022000    66.103000
H     46.771000    24.870000    66.447000
C     44.932000    24.190000    65.729000
C     44.275000    25.564000    65.757000
O     45.023000    26.562000    65.903000
O     43.029000    25.613000    65.633000
O     44.127000    23.152000    65.297000
C     44.254000    22.750000    63.890000
H     43.472000    21.987000    63.763000
C     45.621000    22.170000    63.707000
H     45.843000    21.201000    64.160000
C     46.627000    22.887000    63.170000
C     46.355000    24.226000    62.635000
H     47.217000    24.825000    62.338000
C     45.109000    24.730000    62.564000
H     44.947000    25.745000    62.192000
C     43.896000    23.909000    62.927000
H     43.169000    24.539000    63.463000
O     43.320000    23.381000    61.739000
H     42.369000    23.686000    61.649000
C     48.059000    22.359000    63.196000
O     48.323000    21.412000    63.983000
O     48.889000    22.928000    62.439000
