24
Coordinates from ORCA-job neb_NEB-CI_converged.QMRegion
  C          46.38391740810750     23.80645692021123     65.77072977564058
  H          46.78608106374489     22.80942322919901     65.92539148575338
  H          47.04813351816053     24.66442217757935     65.86732985496819
  C          45.01137888457830     24.02659030194474     65.73040318546991
  C          44.43977403616021     25.45727450255874     65.73981102511286
  O          45.21951314866485     26.40305315437092     65.99462138540832
  O          43.20975911874219     25.57946710164455     65.50803933314305
  O          44.17993799102015     23.06866428681165     65.55529863167176
  C          44.18619570821591     22.55444928264397     63.51308850050804
  H          43.35871141453491     21.85081414736247     63.61946581356246
  C          45.49520681960657     22.10986599365465     63.59937822064812
  H          45.72890688254387     21.11915001880902     63.98995358755665
  C          46.54492701960837     23.01379158221549     63.45578935943893
  C          46.28271754056234     24.32339620484546     62.85222560908205
  H          47.14632736664783     24.96370618752647     62.66454555709972
  C          45.03372409246796     24.71901847680640     62.56013251413540
  H          44.85670060005987     25.69880648057719     62.10834395909209
  C          43.83010184449022     23.84557636633804     62.80239830497992
  H          43.11651501908388     24.39986607669698     63.43358723306387
  O          43.24701230338682     23.49834804373929     61.55228459019651
  H          42.27928551139824     23.77186522444628     61.52427420294983
  C          47.96408108794456     22.44826014362604     63.43884591381668
  O          48.20824104900803     21.42858529752824     64.13091988567972
  O          48.77569049989913     23.02476673164312     62.67143361202316
