24
frame 17505 P
C     46.751000    27.288000    56.219000
H     47.725000    26.822000    56.366000
H     46.728000    28.260000    56.721000
C     45.776000    26.342000    56.877000
C     44.460000    26.860000    57.496000
O     44.588000    27.760000    58.348000
O     43.388000    26.304000    57.146000
O     46.051000    25.158000    56.963000
C     45.151000    25.537000    53.775000
H     45.055000    24.514000    53.407000
C     46.346000    26.055000    54.068000
H     47.265000    25.479000    53.953000
C     46.516000    27.430000    54.662000
C     45.281000    28.272000    54.456000
H     45.393000    29.348000    54.589000
C     44.092000    27.750000    54.152000
H     43.226000    28.406000    54.041000
C     43.852000    26.285000    53.914000
H     43.319000    25.887000    54.798000
O     43.065000    26.127000    52.753000
H     42.328000    25.454000    52.926000
C     47.796000    28.117000    54.068000
O     48.823000    27.437000    53.876000
O     47.744000    29.351000    53.850000
