24
frame 17505 R
C     46.671000    27.084000    57.144000
H     47.580000    26.785000    56.631000
H     46.696000    27.893000    57.872000
C     45.511000    26.472000    56.878000
C     44.220000    26.898000    57.571000
O     44.302000    27.819000    58.410000
O     43.154000    26.306000    57.242000
O     45.430000    25.390000    56.034000
C     45.306000    25.544000    54.574000
H     45.209000    24.509000    54.221000
C     46.572000    26.175000    54.086000
H     47.478000    25.571000    54.029000
C     46.647000    27.508000    53.912000
C     45.433000    28.329000    54.015000
H     45.556000    29.411000    53.956000
C     44.217000    27.778000    54.170000
H     43.335000    28.422000    54.223000
C     44.007000    26.286000    54.193000
H     43.286000    26.033000    54.985000
O     43.535000    25.874000    52.924000
H     42.723000    25.282000    53.044000
C     47.989000    28.201000    53.764000
O     49.047000    27.548000    53.640000
O     47.964000    29.454000    53.842000
