24
Coordinates from ORCA-job neb_NEB-CI_converged.QMRegion
  C          46.75781696096900     27.26506559057682     56.65011036054283
  H          47.68626099291524     26.80965386782474     56.33283863352554
  H          46.78415011195969     28.24676600917781     57.12127157183812
  C          45.65159135553507     26.41977797976927     56.79841528695692
  C          44.36226023739530     26.90530583344593     57.49897767859594
  O          44.47576227160643     27.80372536277335     58.35866079060914
  O          43.28190749667095     26.32905439406998     57.18448541593309
  O          45.65492706872241     25.26442406023955     56.28024402542276
  C          45.24212394900549     25.47634793090717     54.08087736509626
  H          45.16177714868770     24.39520719790846     53.96263501103605
  C          46.45909156614771     26.10863859675234     53.95872638652853
  H          47.38282252263092     25.54534024321221     53.83769740954205
  C          46.55993396275363     27.48160350590570     54.21999689547167
  C          45.34001724018989     28.29132094658778     54.25571523537559
  H          45.45579193470441     29.37275439094612     54.32645570436964
  C          44.12959675547541     27.71888567250667     54.18421651187285
  H          43.23395776544787     28.34239806956094     54.19124774436820
  C          43.93582491096139     26.23463092701293     54.05333181956770
  H          43.32141055223900     25.89042318649602     54.90285395438971
  O          43.29663753009538     25.96729016478507     52.81506677353589
  H          42.51683366500448     25.32718101950239     52.96341719175850
  C          47.89242287953469     28.16947017677960     53.95376695073510
  O          48.93350650092343     27.49442636502318     53.80819434110252
  O          47.87136333253432     29.41918021272711     53.85569115300423
