24
frame 09025 P
C     45.738000    29.814000    67.238000
H     46.203000    28.913000    67.662000
H     46.181000    30.692000    67.712000
C     44.260000    29.788000    67.536000
C     43.459000    31.122000    67.492000
O     44.027000    32.135000    67.953000
O     42.294000    31.069000    67.035000
O     43.691000    28.747000    67.809000
C     44.404000    28.198000    64.694000
H     44.069000    27.194000    64.448000
C     45.610000    28.443000    65.211000
H     46.317000    27.637000    65.422000
C     46.013000    29.821000    65.682000
C     45.208000    30.880000    64.964000
H     45.640000    31.880000    64.947000
C     44.051000    30.615000    64.351000
H     43.526000    31.393000    63.792000
C     43.387000    29.264000    64.387000
H     42.634000    29.290000    65.198000
O     42.752000    28.979000    63.156000
H     41.813000    28.646000    63.300000
C     47.547000    30.085000    65.517000
O     48.319000    29.184000    65.920000
O     47.902000    31.199000    65.037000
