24
frame 09025 R
C     45.331000    29.762000    68.304000
H     45.885000    28.823000    68.346000
H     45.713000    30.629000    68.839000
C     44.202000    29.873000    67.595000
C     43.427000    31.187000    67.518000
O     43.958000    32.195000    68.032000
O     42.300000    31.164000    66.953000
O     43.677000    28.783000    66.933000
C     44.098000    28.496000    65.547000
H     43.767000    27.462000    65.393000
C     45.590000    28.628000    65.465000
H     46.216000    27.840000    65.889000
C     46.159000    29.780000    65.055000
C     45.325000    30.830000    64.461000
H     45.830000    31.760000    64.193000
C     44.019000    30.640000    64.213000
H     43.442000    31.419000    63.713000
C     43.289000    29.374000    64.562000
H     42.384000    29.664000    65.114000
O     42.940000    28.671000    63.380000
H     41.971000    28.406000    63.425000
C     47.649000    30.065000    65.228000
O     48.380000    29.185000    65.741000
O     48.029000    31.218000    64.863000
