24
Coordinates from ORCA-job neb_NEB-CI_converged.QMRegion
  C          45.62064539831420     29.81911240885490     67.73343085610637
  H          46.13762197697124     28.86328479883855     67.79022783641445
  H          46.14769625105139     30.68531456861666     68.11089216064916
  C          44.24664761663760     29.83576463754424     67.50734961153358
  C          43.46538786356501     31.17193524061823     67.49887516341775
  O          44.01132430045358     32.17640384282749     68.00575729653492
  O          42.31373429328860     31.15262138099978     66.98879264366450
  O          43.64095404651157     28.77548774594768     67.14615800083229
  C          44.18747147977973     28.27669369950600     65.12460076968644
  H          43.74612104958568     27.28497639233403     65.20495000457144
  C          45.54927384635145     28.46804722946024     65.27743274306991
  H          46.20083260874677     27.64912500236053     65.58747012388636
  C          46.05566532313295     29.77819644413887     65.32467878348169
  C          45.23408415978518     30.84967584760907     64.75830810017423
  H          45.71050628701256     31.82390018677797     64.65488484135368
  C          43.99016855384461     30.61757297981012     64.30674177849291
  H          43.43384178423831     31.39973152260883     63.78915553377010
  C          43.28942775112695     29.30345977153079     64.47051247351946
  H          42.43575432493409     29.48664625910924     65.14154293488104
  O          42.83582902157690     28.81413380623588     63.21939306218392
  H          41.88112083081040     28.49461356304332     63.31035209047575
  C          47.55781988758812     30.06186690035263     65.45225944547921
  O          48.29939925283771     29.17171006618358     65.92911807616701
  O          47.93810252785786     31.19283106300577     65.02679169632270
