24
frame 38344 P
C     44.006000    20.664000    36.513000
H     44.788000    19.945000    36.232000
H     44.445000    21.661000    36.639000
C     43.394000    20.234000    37.819000
C     42.925000    21.311000    38.826000
O     43.668000    22.308000    38.956000
O     41.861000    21.069000    39.448000
O     43.248000    19.057000    38.093000
C     41.216000    18.941000    35.837000
H     40.885000    17.904000    35.872000
C     42.369000    19.274000    35.248000
H     43.006000    18.514000    34.788000
C     42.943000    20.667000    35.337000
C     41.847000    21.661000    35.630000
H     42.039000    22.693000    35.349000
C     40.691000    21.331000    36.208000
H     39.952000    22.105000    36.430000
C     40.297000    19.915000    36.529000
H     40.387000    19.767000    37.623000
O     38.960000    19.678000    36.115000
H     38.356000    19.505000    36.900000
C     43.723000    21.074000    34.043000
O     44.827000    20.504000    33.827000
O     43.257000    21.999000    33.339000
