24
frame 38344 R
C     44.548000    20.393000    37.290000
H     44.921000    19.659000    36.575000
H     45.141000    21.280000    37.513000
C     43.362000    20.252000    37.894000
C     42.843000    21.307000    38.861000
O     43.561000    22.317000    39.046000
O     41.729000    21.090000    39.413000
O     42.560000    19.150000    37.687000
C     41.689000    19.080000    36.495000
H     41.347000    18.036000    36.492000
C     42.523000    19.394000    35.292000
H     43.230000    18.641000    34.940000
C     42.555000    20.645000    34.792000
C     41.619000    21.654000    35.301000
H     41.739000    22.662000    34.909000
C     40.667000    21.365000    36.203000
H     39.992000    22.151000    36.553000
C     40.441000    19.968000    36.709000
H     40.300000    20.009000    37.799000
O     39.300000    19.403000    36.075000
H     38.572000    19.274000    36.758000
C     43.591000    21.118000    33.781000
O     44.695000    20.512000    33.694000
O     43.298000    22.166000    33.151000
