24
Coordinates from ORCA-job neb_NEB-CI_converged.QMRegion
  C          44.34441057507033     20.63056913558543     36.87604445551195
  H          44.83130579922538     19.88249928800062     36.25546699570069
  H          44.77825359453779     21.62801792227834     36.92953057453872
  C          43.39296943678219     20.26585027390764     37.82504313175724
  C          42.87911933625407     21.32965155415163     38.81208616158332
  O          43.60110429839646     22.33690286795894     38.99880867231705
  O          41.78070138043111     21.09658740146959     39.38826392062883
  O          42.84146165793216     19.11678325996791     37.83025578676430
  C          41.47811864169375     18.93219576840767     36.16462760745706
  H          41.29818630467940     17.87748991053639     36.37072090454726
  C          42.42716132856624     19.29810185836413     35.22623498413278
  H          43.09295646779989     18.55111108400765     34.79233931645808
  C          42.71682249109900     20.65376050415824     35.03486562171660
  C          41.75392527082471     21.64519586420543     35.52060031822849
  H          41.92582304007986     22.68015515226274     35.23536379591705
  C          40.69412538021651     21.29767304898695     36.26625938942306
  H          39.98379462172088     22.05990944157431     36.59566026388994
  C          40.39466689313907     19.87579328182111     36.64400617882437
  H          40.36194780896400     19.81335578657037     37.74315878189763
  O          39.15078031485864     19.47684823018015     36.08097603212830
  H          38.46658854588906     19.32994954861796     36.81079795769015
  C          43.68042606435590     21.10659382850731     33.93942179925858
  O          44.77442881857582     20.50736421664425     33.77358041500746
  O          43.30323311637719     22.10263534276174     33.27216504967066
