24
frame 21634 P
C     49.140000    24.255000    53.626000
H     49.929000    23.514000    53.810000
H     49.475000    25.253000    53.933000
C     47.916000    23.844000    54.405000
C     46.901000    24.915000    54.918000
O     47.281000    26.113000    54.975000
O     45.777000    24.489000    55.249000
O     47.664000    22.669000    54.584000
C     46.944000    22.696000    51.508000
H     46.572000    21.689000    51.317000
C     48.246000    22.912000    51.708000
H     48.965000    22.091000    51.697000
C     48.810000    24.255000    52.076000
C     47.815000    25.359000    51.825000
H     48.213000    26.373000    51.870000
C     46.513000    25.142000    51.625000
H     45.824000    25.985000    51.527000
C     45.896000    23.774000    51.542000
H     45.266000    23.630000    52.441000
O     45.077000    23.681000    50.377000
H     44.141000    23.433000    50.632000
C     50.148000    24.515000    51.296000
O     51.030000    23.616000    51.293000
O     50.247000    25.626000    50.732000
