24
frame 21634 R
C     49.040000    24.209000    54.467000
H     49.766000    23.472000    54.125000
H     49.396000    25.142000    54.903000
C     47.723000    24.016000    54.354000
C     46.711000    25.020000    54.873000
O     47.091000    26.215000    55.027000
O     45.563000    24.591000    55.133000
O     47.197000    22.866000    53.798000
C     47.053000    22.831000    52.334000
H     46.659000    21.825000    52.135000
C     48.409000    23.007000    51.724000
H     49.123000    22.186000    51.795000
C     48.806000    24.204000    51.255000
C     47.873000    25.339000    51.259000
H     48.301000    26.312000    51.008000
C     46.579000    25.198000    51.589000
H     45.913000    26.064000    51.631000
C     45.982000    23.839000    51.855000
H     45.244000    23.917000    52.668000
O     45.358000    23.362000    50.662000
H     44.380000    23.230000    50.816000
C     50.237000    24.468000    50.805000
O     51.139000    23.629000    51.081000
O     50.411000    25.556000    50.208000
