24
Coordinates from ORCA-job neb_NEB-CI_converged.QMRegion
  C          49.10844547663446     24.26837888879726     54.01393725104283
  H          49.84165981398031     23.48430374933262     53.83710677859995
  H          49.46402047234332     25.27458550608521     54.22654874926092
  C          47.79070963555929     23.93699860661588     54.30952101929305
  C          46.80156080447799     24.98529165122687     54.83825315285613
  O          47.19275626312670     26.17882796846747     54.97439569658462
  O          45.65518833736227     24.57446367348763     55.13029116532240
  O          47.31483336466200     22.78316038976676     54.02082836092663
  C          46.99236852781226     22.67984141764200     51.98509408203796
  H          46.63133106121949     21.65343345077099     52.03408883252794
  C          48.31628372804872     22.92701150830874     51.65249356009177
  H          49.05168618396154     22.12371241912621     51.63123360057868
  C          48.78209831411987     24.23880772144236     51.65072901022446
  C          47.81325380044250     25.34286303206274     51.60965399488922
  H          48.22562701578209     26.34888420611156     51.52425216802278
  C          46.49373868751405     25.11646506715796     51.68240481060286
  H          45.78384718376195     25.94600012010882     51.66830745973066
  C          45.92028757534531     23.72990397784703     51.77273970547395
  H          45.21886876175780     23.69819502424337     52.62002406127392
  O          45.23913331804231     23.41529541700260     50.55374736541986
  H          44.26674180275866     23.25343558123203     50.73818184201679
  C          50.20177922453993     24.52671638576053     51.16427609964465
  O          51.08451266515867     23.63207429812153     51.23450008644544
  O          50.35857814422903     25.66722427292509     50.67075751575795
