24
frame 20000 P
C     48.224000    28.262000    55.994000
H     49.076000    27.584000    56.141000
H     48.362000    29.164000    56.599000
C     46.972000    27.540000    56.426000
C     45.866000    28.295000    57.208000
O     46.244000    29.174000    58.008000
O     44.683000    27.925000    56.990000
O     46.818000    26.364000    56.154000
C     46.697000    27.059000    53.236000
H     46.542000    26.129000    52.688000
C     47.919000    27.448000    53.618000
H     48.814000    26.873000    53.361000
C     48.145000    28.672000    54.467000
C     46.985000    29.634000    54.326000
H     47.195000    30.670000    54.594000
C     45.768000    29.246000    53.934000
H     44.950000    29.969000    53.871000
C     45.435000    27.831000    53.537000
H     44.923000    27.350000    54.394000
O     44.578000    27.844000    52.410000
H     43.802000    27.210000    52.525000
C     49.516000    29.369000    54.153000
O     50.522000    28.638000    53.933000
O     49.531000    30.612000    54.192000
