24
frame 20000 R
C     48.064000    27.894000    56.866000
H     48.929000    27.402000    56.423000
H     48.211000    28.661000    57.627000
C     46.808000    27.594000    56.511000
C     45.618000    28.277000    57.175000
O     45.842000    29.312000    57.855000
O     44.482000    27.767000    57.017000
O     46.535000    26.614000    55.576000
C     46.550000    26.968000    54.140000
H     46.353000    26.007000    53.643000
C     47.908000    27.502000    53.801000
H     48.758000    26.826000    53.679000
C     48.154000    28.827000    53.832000
C     47.036000    29.770000    53.961000
H     47.296000    30.825000    54.057000
C     45.755000    29.358000    53.958000
H     44.944000    30.088000    54.032000
C     45.364000    27.910000    53.819000
H     44.602000    27.678000    54.582000
O     44.845000    27.680000    52.517000
H     43.998000    27.141000    52.574000
C     49.577000    29.380000    53.866000
O     50.556000    28.587000    53.823000
O     49.681000    30.616000    54.001000
