24
Coordinates from ORCA-job neb_NEB-CI_converged.QMRegion
  C          48.13665195170395     28.11099393167631     56.47990168931069
  H          48.99756606965992     27.52932175403349     56.16382993435425
  H          48.29644606282321     29.04065827953409     57.01852064284176
  C          46.86326821639116     27.56012638386634     56.45694852718336
  C          45.68554539322199     28.28415280040165     57.14353045178218
  O          45.92967154745504     29.31397308750017     57.82386715803093
  O          44.54253085154831     27.78244540710671     57.01291304783611
  O          46.61270490828059     26.50175197327764     55.77674163157890
  C          46.56550062939512     26.94913725759370     53.74789051855353
  H          46.38417696925024     25.91404645532710     53.45262008211585
  C          47.84924920907488     27.47915940786428     53.67626655618591
  H          48.72302057735292     26.85838159879627     53.46627697246730
  C          48.07365180178414     28.77801040466105     54.13250307020893
  C          46.93407040629320     29.69610292465645     54.23283959539147
  H          47.16982717471195     30.73357359473387     54.46979000550586
  C          45.67622186105969     29.27363564197289     54.02407822318739
  H          44.84286442480019     29.97912961722419     54.05383987394905
  C          45.33350387834778     27.83883824541154     53.73583728308256
  H          44.65711693473894     27.48559354932087     54.53198061309380
  O          44.69871223953086     27.74785312891781     52.46801613200518
  H          43.87884443156800     27.15595583011908     52.52768663337343
  C          49.48152244782959     29.38530399353509     54.10218811879052
  O          50.47632119349482     28.62558616896478     53.93202920214060
  O          49.53850808878820     30.62361636145680     54.23403626937011
