24
frame 49592 P
C     40.459000    15.097000    44.046000
H     41.415000    14.584000    43.882000
H     40.646000    16.119000    44.400000
C     39.682000    14.314000    45.080000
C     38.766000    15.022000    46.098000
O     39.243000    16.059000    46.597000
O     37.676000    14.466000    46.379000
O     39.774000    13.098000    45.149000
C     38.098000    13.215000    42.426000
H     37.896000    12.188000    42.115000
C     39.300000    13.765000    42.231000
H     40.105000    13.204000    41.754000
C     39.653000    15.158000    42.682000
C     38.413000    15.965000    42.981000
H     38.557000    17.041000    43.075000
C     37.219000    15.409000    43.201000
H     36.380000    16.032000    43.519000
C     36.931000    13.939000    43.044000
H     36.741000    13.525000    44.052000
O     35.783000    13.759000    42.226000
H     35.058000    13.272000    42.724000
C     40.576000    15.872000    41.629000
O     41.426000    15.181000    41.007000
O     40.416000    17.101000    41.473000
