24
frame 49592 R
C     40.709000    14.742000    44.917000
H     41.395000    14.320000    44.183000
H     41.015000    15.626000    45.474000
C     39.499000    14.218000    45.146000
C     38.562000    14.813000    46.190000
O     38.824000    15.977000    46.581000
O     37.609000    14.107000    46.603000
O     39.064000    13.085000    44.483000
C     38.366000    13.250000    43.180000
H     38.118000    12.220000    42.894000
C     39.334000    13.874000    42.227000
H     40.111000    13.257000    41.772000
C     39.367000    15.212000    42.068000
C     38.331000    16.050000    42.683000
H     38.471000    17.128000    42.612000
C     37.268000    15.516000    43.308000
H     36.509000    16.157000    43.764000
C     37.042000    14.025000    43.351000
H     36.645000    13.754000    44.340000
O     36.130000    13.659000    42.323000
H     35.326000    13.216000    42.722000
C     40.517000    15.897000    41.344000
O     41.430000    15.194000    40.831000
O     40.482000    17.151000    41.326000
