24
Coordinates from ORCA-job neb_NEB-CI_converged.QMRegion
  C          40.62949811617806     14.98444662530815     44.54577270812079
  H          41.38479236131186     14.50850850191071     43.92816528953670
  H          40.79814419500735     16.00592752777579     44.88213641974537
  C          39.59813501536662     14.23507228213760     45.09305018214839
  C          38.64713319689722     14.86647221379057     46.12417145169636
  O          38.92424800594460     16.02291121076355     46.52498734582073
  O          37.67228162333139     14.18107086887891     46.52101546946283
  O          39.33677516471801     13.04347142431338     44.69586883477089
  C          38.23405732295997     13.16293543248404     42.80847160078194
  H          38.12391225753893     12.07974543870589     42.72394636190609
  C          39.27770453532627     13.80536150896068     42.15993908627885
  H          40.07172541522742     13.24011945563967     41.67293094347061
  C          39.43391004494399     15.18377205758516     42.29246097877220
  C          38.34224807324468     15.98182303591797     42.85105219612612
  H          38.48640358381596     17.06199313482117     42.87898419944649
  C          37.22084980291517     15.40139937394549     43.30964270368098
  H          36.41822755536999     16.00224809731107     43.74120293588925
  C          36.99450592571146     13.91613243231512     43.24129233339584
  H          36.70348787887314     13.56699597379412     44.24285257501428
  O          35.97138904377383     13.63549765572865     42.28797704343545
  H          35.18548244268784     13.19112673496956     42.73373848132915
  C          40.54115983151826     15.89117188128168     41.50915018829260
  O          41.43628256892394     15.19534328227875     40.95654762851953
  O          40.44581611804544     17.13539709789078     41.41743188496429
