24
frame 34991 P
C     44.093000    15.168000    45.784000
H     44.854000    14.381000    45.731000
H     44.577000    16.142000    45.938000
C     43.215000    14.869000    46.977000
C     42.712000    15.997000    47.941000
O     43.260000    17.126000    47.893000
O     41.801000    15.666000    48.724000
O     42.855000    13.728000    47.187000
C     41.048000    14.017000    44.716000
H     40.426000    13.119000    44.690000
C     42.344000    13.960000    44.400000
H     42.823000    13.017000    44.140000
C     43.252000    15.162000    44.433000
C     42.456000    16.444000    44.438000
H     43.008000    17.354000    44.199000
C     41.174000    16.499000    44.802000
H     40.668000    17.465000    44.881000
C     40.347000    15.284000    45.127000
H     40.195000    15.260000    46.226000
O     39.090000    15.376000    44.477000
H     38.344000    15.253000    45.147000
C     44.206000    15.074000    43.170000
O     44.881000    14.028000    42.996000
O     44.199000    16.063000    42.400000
