24
frame 34991 R
C     44.420000    15.226000    46.593000
H     44.842000    14.467000    45.937000
H     45.047000    16.060000    46.908000
C     43.158000    15.172000    47.033000
C     42.601000    16.190000    48.017000
O     43.186000    17.302000    48.116000
O     41.604000    15.842000    48.686000
O     42.295000    14.143000    46.705000
C     41.627000    14.195000    45.398000
H     40.932000    13.343000    45.426000
C     42.662000    13.997000    44.334000
H     43.123000    13.012000    44.238000
C     43.125000    15.023000    43.595000
C     42.549000    16.363000    43.775000
H     43.042000    17.178000    43.242000
C     41.498000    16.592000    44.582000
H     41.113000    17.606000    44.720000
C     40.750000    15.466000    45.250000
H     40.460000    15.758000    46.274000
O     39.596000    15.194000    44.466000
H     38.790000    15.078000    45.052000
C     44.289000    14.848000    42.618000
O     44.978000    13.792000    42.678000
O     44.481000    15.811000    41.833000
