24
Coordinates from ORCA-job neb_NEB-CI_converged.QMRegion
  C          44.27311248203701     15.11321029996286     46.16228234967557
  H          44.72367774999798     14.24301884039593     45.70205268026898
  H          44.85384562026700     16.03208218306648     46.23074999549246
  C          43.13829555108954     14.95754521658749     46.94789350609995
  C          42.63507820711737     16.06871339992708     47.88766127768698
  O          43.23119637047135     17.17840406407190     47.91966923158154
  O          41.65896978078313     15.77020049519060     48.61144346179915
  O          42.41361945288267     13.90542800609707     46.85883562603380
  C          41.24207783782978     14.04703532776120     45.10184215036391
  H          40.68295537490764     13.13451671720621     45.31640694277426
  C          42.36648904396824     13.99330003636595     44.29563854242478
  H          42.82006732769673     13.04175806418549     44.02736492516050
  C          43.08454692292437     15.15338994432390     44.02237461303646
  C          42.45902207109279     16.45699289231760     44.28407288777606
  H          43.00827573977748     17.34767693536931     43.97463111034357
  C          41.27244798549951     16.54778932316522     44.90356038647490
  H          40.82740511014801     17.52346548925181     45.11314465428074
  C          40.47940933630899     15.33850964105440     45.31729371645538
  H          40.23348840112027     15.42197327545576     46.38951271612230
  O          39.28898399456486     15.28628372653162     44.53546734803412
  H          38.48998912326623     15.16030952847438     45.14197204142103
  C          44.22393988438492     15.05360442490390     42.99890375177691
  O          44.89220419416547     13.99153284115232     42.90974993433606
  O          44.35246022324971     16.06458973995792     42.26519720405145
