24
frame 24883 P
C     42.654000    20.127000    56.113000
H     43.340000    19.287000    56.293000
H     43.050000    21.046000    56.568000
C     41.303000    19.764000    56.682000
C     40.332000    20.849000    57.228000
O     40.829000    21.908000    57.680000
O     39.113000    20.562000    57.217000
O     40.921000    18.612000    56.668000
C     40.598000    19.077000    53.588000
H     40.155000    18.162000    53.194000
C     41.892000    19.124000    53.921000
H     42.542000    18.255000    53.804000
C     42.538000    20.334000    54.544000
C     41.692000    21.561000    54.333000
H     42.184000    22.518000    54.504000
C     40.389000    21.510000    54.043000
H     39.797000    22.428000    54.036000
C     39.648000    20.238000    53.725000
H     38.948000    20.030000    54.556000
O     38.917000    20.394000    52.514000
H     37.928000    20.307000    52.657000
C     44.007000    20.492000    54.022000
O     44.720000    19.457000    54.031000
O     44.380000    21.625000    53.646000
