24
frame 24883 R
C     42.394000    19.871000    56.917000
H     43.081000    19.125000    56.517000
H     42.772000    20.646000    57.583000
C     41.093000    19.875000    56.600000
C     40.130000    20.896000    57.181000
O     40.619000    21.952000    57.663000
O     38.904000    20.616000    57.157000
O     40.534000    18.917000    55.790000
C     40.530000    19.125000    54.332000
H     40.032000    18.225000    53.947000
C     41.961000    19.207000    53.905000
H     42.559000    18.294000    53.866000
C     42.576000    20.401000    53.813000
C     41.786000    21.634000    53.919000
H     42.351000    22.566000    53.920000
C     40.448000    21.625000    54.039000
H     39.897000    22.559000    54.169000
C     39.656000    20.344000    53.957000
H     38.842000    20.373000    54.696000
O     39.126000    20.193000    52.642000
H     38.128000    20.171000    52.669000
C     44.090000    20.517000    53.728000
O     44.781000    19.478000    53.903000
O     44.542000    21.670000    53.521000
