24
Coordinates from ORCA-job neb_NEB-CI_converged.QMRegion
  C          42.58070667815206     20.05921446908156     56.49398499048947
  H          43.24620424507319     19.23976211621376     56.23243652912078
  H          43.01300795817696     20.97628775015850     56.89486536726073
  C          41.20917244359402     19.83342871584717     56.58451303481088
  C          40.25669727089280     20.89037902520740     57.16975298326148
  O          40.75185767833912     21.94390282109498     57.65031132524285
  O          39.02867549302762     20.62315410514888     57.16215539266990
  O          40.67479034532868     18.79819090823289     56.06578475230224
  C          40.53689039382678     19.03864337818290     53.98385422264092
  H          40.05383750924783     18.07098811915459     53.84353260414560
  C          41.90889977494932     19.15842444222276     53.82133779467338
  H          42.54541995134920     18.28074685754218     53.70359045695982
  C          42.52623549457051     20.37956885436761     54.09397970511462
  C          41.70030848787170     21.59019944329546     54.14534181336139
  H          42.22710318671550     22.53586567708769     54.26571303552495
  C          40.36038913085321     21.53215067416163     54.08735062965443
  H          39.76190082017833     22.44009500255280     54.18643980089578
  C          39.61670729513080     20.23922250199224     53.88666038471075
  H          38.84967308624843     20.14998223615321     54.66975741251091
  O          39.01470010221978     20.22463841770647     52.59191859634945
  H          38.01315959055552     20.18577808589727     52.66086936511123
  C          44.03527767307942     20.50595669449709     53.90122485633998
  O          44.73290668728740     19.46350769934769     53.99593759655509
  O          44.46558243066006     21.64898230444779     53.62120776693170
