24
frame 41786 P
C     44.390000    21.903000    39.353000
H     45.099000    21.130000    39.029000
H     44.922000    22.831000    39.580000
C     43.710000    21.442000    40.614000
C     43.262000    22.496000    41.665000
O     43.943000    23.540000    41.760000
O     42.257000    22.185000    42.351000
O     43.475000    20.264000    40.806000
C     41.507000    20.433000    38.455000
H     41.100000    19.433000    38.303000
C     42.679000    20.788000    37.919000
H     43.265000    20.078000    37.331000
C     43.327000    22.119000    38.198000
C     42.309000    23.122000    38.681000
H     42.595000    24.169000    38.617000
C     41.135000    22.768000    39.207000
H     40.457000    23.534000    39.595000
C     40.660000    21.343000    39.305000
H     40.748000    21.027000    40.361000
O     39.307000    21.259000    38.897000
H     38.743000    20.794000    39.597000
C     44.100000    22.655000    36.945000
O     45.001000    21.934000    36.451000
O     43.814000    23.812000    36.546000
