24
frame 41786 R
C     44.842000    22.068000    40.142000
H     45.265000    21.440000    39.358000
H     45.368000    22.976000    40.435000
C     43.689000    21.758000    40.746000
C     43.115000    22.623000    41.859000
O     43.577000    23.785000    42.012000
O     42.221000    22.117000    42.579000
O     42.985000    20.610000    40.433000
C     42.079000    20.646000    39.270000
H     41.683000    19.622000    39.219000
C     42.892000    20.975000    38.054000
H     43.551000    20.209000    37.638000
C     42.969000    22.244000    37.605000
C     42.118000    23.281000    38.202000
H     42.307000    24.301000    37.867000
C     41.188000    23.002000    39.130000
H     40.598000    23.809000    39.575000
C     40.887000    21.588000    39.553000
H     40.742000    21.566000    40.644000
O     39.715000    21.144000    38.884000
H     39.068000    20.737000    39.535000
C     44.024000    22.694000    36.600000
O     44.937000    21.905000    36.259000
O     43.944000    23.900000    36.236000
