24
Coordinates from ORCA-job neb_NEB-CI_converged.QMRegion
  C          44.70379052120444     22.03027296039081     39.81275914069016
  H          45.20020972633482     21.32269007730742     39.15420796471438
  H          45.15889863797315     23.00311737954231     39.98393007227135
  C          43.72425635252689     21.59432658633567     40.70192600298263
  C          43.17336026749597     22.57325449020262     41.76356389533896
  O          43.72140636347432     23.69648776173342     41.89957432603784
  O          42.20993835134305     22.16457862208866     42.45766577547957
  O          43.18280246062735     20.44687050918687     40.60088547559950
  C          41.78769414313447     20.46400695006162     38.91140583900664
  H          41.54085830732700     19.40479005173566     39.00809600205581
  C          42.75174571334794     20.86754005385433     38.00762367777884
  H          43.36693525020121     20.13849608352005     37.47785960535399
  C          43.10710658220386     22.22005833925614     37.93767024708864
  C          42.22677073222708     23.21735279877189     38.54786036437958
  H          42.48482481383628     24.26102501913270     38.37652753329940
  C          41.15907139957874     22.85948863250048     39.27662793773891
  H          40.52321272809156     23.62324191452735     39.73233624894019
  C          40.77426067142985     21.42409827965911     39.49724973844518
  H          40.72486813467685     21.25087906161234     40.58210259679398
  O          39.50982322761865     21.17982523077805     38.89464956820389
  H          38.88165035395545     20.74013889455531     39.55723440593049
  C          44.07600637478343     22.70000689438677     36.85809395618329
  O          44.98053199183199     21.93818805912722     36.44381126972986
  O          43.88431578333018     23.87729648854557     36.44974993584806
