24
frame 23268 P
C     46.248000    26.643000    54.761000
H     47.132000    26.067000    55.052000
H     46.410000    27.705000    54.980000
C     45.074000    26.127000    55.555000
C     43.982000    27.124000    56.034000
O     44.386000    28.244000    56.404000
O     42.795000    26.712000    56.023000
O     44.970000    24.931000    55.787000
C     44.400000    24.546000    52.749000
H     44.205000    23.479000    52.636000
C     45.641000    24.994000    52.956000
H     46.488000    24.305000    53.008000
C     45.967000    26.440000    53.213000
C     44.793000    27.334000    52.891000
H     44.976000    28.408000    52.902000
C     43.551000    26.879000    52.710000
H     42.721000    27.580000    52.609000
C     43.188000    25.425000    52.642000
H     42.516000    25.204000    53.491000
O     42.515000    25.140000    51.418000
H     41.529000    25.030000    51.587000
C     47.257000    26.846000    52.413000
O     48.260000    26.078000    52.440000
O     47.205000    27.927000    51.787000
