24
frame 23268 R
C     46.089000    26.523000    55.691000
H     46.912000    25.890000    55.367000
H     46.312000    27.496000    56.129000
C     44.809000    26.159000    55.554000
C     43.683000    27.078000    56.018000
O     43.989000    28.269000    56.284000
O     42.528000    26.594000    56.114000
O     44.454000    24.925000    55.022000
C     44.361000    24.803000    53.552000
H     44.096000    23.749000    53.391000
C     45.703000    25.118000    52.966000
H     46.514000    24.394000    53.069000
C     45.965000    26.344000    52.472000
C     44.896000    27.351000    52.402000
H     45.191000    28.361000    52.119000
C     43.622000    27.058000    52.708000
H     42.852000    27.831000    52.712000
C     43.194000    25.645000    52.994000
H     42.421000    25.661000    53.773000
O     42.703000    25.045000    51.799000
H     41.703000    24.996000    51.828000
C     47.366000    26.789000    52.084000
O     48.356000    26.028000    52.288000
O     47.427000    27.944000    51.603000
