24
Coordinates from ORCA-job neb_NEB-CI_converged.QMRegion
  C          46.18231207889084     26.60653326282224     55.22640932199775
  H          47.01208106341980     25.93137495959257     55.05294966013238
  H          46.39020046647848     27.66088054624312     55.39938305356261
  C          44.91578161969954     26.10447883453222     55.49577865639755
  C          43.80266573662860     27.06809957490819     55.95303000264018
  O          44.13100830756571     28.25332472198076     56.21435064174625
  O          42.63811718683111     26.60905580372683     56.05663617899802
  O          44.61708609856797     24.87499108208540     55.26349225993910
  C          44.36872900874673     24.60110000458364     53.17629461114732
  H          44.15596388301584     23.53603124726051     53.27312940072117
  C          45.65202848272607     25.02455639766015     52.86465653122659
  H          46.49791113639715     24.33612043439674     52.87673888021835
  C          45.92209851790353     26.38680087600097     52.77547998943738
  C          44.80735471840035     27.33846428308884     52.69610594378741
  H          45.05041371359093     28.39358431828763     52.58382181750947
  C          43.53417798200419     26.92591734848395     52.77932690107360
  H          42.71052282592418     27.64093962123113     52.76018782006210
  C          43.16799073449724     25.47436723267229     52.88628103391745
  H          42.44618980880215     25.36675523993414     53.70661401254265
  O          42.60877538758597     25.01970907982887     51.65332221648259
  H          41.60748190020965     24.94866803991815     51.73972857782579
  C          47.29799519170622     26.84152816430025     52.29213531612476
  O          48.29641048933303     26.07455082444400     52.39923658423554
  O          47.30980680825841     27.96827226283299     51.74571209958444
