24
frame 43738 P
C     43.974000    18.940000    33.829000
H     44.571000    18.114000    33.420000
H     44.621000    19.797000    34.018000
C     43.431000    18.474000    35.158000
C     43.261000    19.427000    36.366000
O     44.192000    20.237000    36.570000
O     42.234000    19.258000    37.069000
O     43.140000    17.306000    35.309000
C     40.790000    17.933000    33.383000
H     40.203000    17.014000    33.321000
C     41.923000    18.066000    32.691000
H     42.289000    17.263000    32.051000
C     42.812000    19.277000    32.802000
C     42.042000    20.461000    33.342000
H     42.481000    21.443000    33.161000
C     40.896000    20.334000    34.017000
H     40.384000    21.216000    34.415000
C     40.226000    19.010000    34.275000
H     40.415000    18.745000    35.338000
O     38.840000    19.165000    34.056000
H     38.331000    18.469000    34.588000
C     43.463000    19.609000    31.399000
O     43.851000    18.672000    30.663000
O     43.585000    20.816000    31.100000
