24
frame 43738 R
C     44.412000    18.826000    34.602000
H     44.605000    18.213000    33.722000
H     45.140000    19.579000    34.902000
C     43.310000    18.669000    35.344000
C     43.078000    19.483000    36.612000
O     43.951000    20.331000    36.909000
O     42.034000    19.245000    37.277000
O     42.352000    17.726000    35.039000
C     41.330000    18.015000    34.022000
H     40.711000    17.108000    34.027000
C     42.015000    18.193000    32.703000
H     42.371000    17.310000    32.172000
C     42.335000    19.421000    32.246000
C     41.842000    20.606000    32.960000
H     42.219000    21.574000    32.623000
C     40.965000    20.513000    33.977000
H     40.596000    21.416000    34.474000
C     40.419000    19.187000    34.447000
H     40.404000    19.176000    35.551000
O     39.110000    19.026000    33.923000
H     38.570000    18.439000    34.540000
C     43.317000    19.586000    31.086000
O     43.591000    18.604000    30.364000
O     43.854000    20.716000    30.958000
