24
Coordinates from ORCA-job neb_NEB-CI_converged.QMRegion
  C          44.23466459054423     18.86490364988711     34.12121381275984
  H          44.51502720676275     18.09566855694136     33.40783825740981
  H          44.87629646625039     19.73318808669808     34.23935158375711
  C          43.35359387163786     18.54168662235473     35.15389552720354
  C          43.19114209277635     19.45009494223265     36.39130097668478
  O          44.11425781601139     20.26066520253729     36.63879768609137
  O          42.16111039829990     19.27501198039105     37.09852324476716
  O          42.58927665925349     17.52970824824792     35.06150995939830
  C          41.01000427687197     17.91457820742455     33.68351628913653
  H          40.56080263887933     16.93123039454856     33.83120690267326
  C          41.88314391676574     18.12726214821569     32.63397282056794
  H          42.23212904424481     17.30001944386315     32.01876682948633
  C          42.52586272744719     19.36354685341899     32.50790215697580
  C          41.94218509236320     20.52238831909250     33.19809798046762
  H          42.36985654179966     21.49786266777371     32.96151884484488
  C          40.91278189084151     20.38722722772429     34.05041414650420
  H          40.46325593861506     21.26628482631260     34.52187488301607
  C          40.30184568888662     19.05380185711985     34.38260242794695
  H          40.37807211308461     18.90110001857296     35.47342418987804
  O          38.94729400280672     19.06293470555488     33.96387637514694
  H          38.41348033188021     18.40122230285419     34.52445754498288
  C          43.41719660526614     19.61118268986626     31.28005230682933
  O          43.78058501520310     18.64543680812234     30.57229642541217
  O          43.71923259480472     20.80035867847416     31.03043934050798
