24
frame 40485 P
C     43.552000    17.636000    40.966000
H     44.302000    16.834000    40.916000
H     44.036000    18.610000    41.091000
C     42.715000    17.438000    42.208000
C     42.336000    18.656000    43.107000
O     43.152000    19.603000    43.154000
O     41.264000    18.554000    43.752000
O     42.352000    16.327000    42.536000
C     40.684000    16.223000    40.077000
H     40.136000    15.279000    40.098000
C     41.924000    16.299000    39.588000
H     42.446000    15.418000    39.207000
C     42.714000    17.589000    39.619000
C     41.787000    18.775000    39.626000
H     42.193000    19.715000    39.248000
C     40.553000    18.703000    40.133000
H     39.933000    19.600000    40.193000
C     39.942000    17.414000    40.637000
H     40.023000    17.406000    41.743000
O     38.582000    17.357000    40.261000
H     37.991000    17.092000    41.022000
C     43.733000    17.585000    38.415000
O     44.540000    16.631000    38.414000
O     43.722000    18.528000    37.574000
