24
frame 40485 R
C     44.117000    17.714000    41.738000
H     44.474000    16.925000    41.076000
H     44.767000    18.545000    42.019000
C     42.885000    17.692000    42.264000
C     42.411000    18.803000    43.205000
O     43.158000    19.799000    43.326000
O     41.307000    18.639000    43.793000
O     42.017000    16.653000    42.050000
C     41.214000    16.604000    40.818000
H     40.645000    15.670000    40.927000
C     42.140000    16.540000    39.644000
H     42.675000    15.609000    39.441000
C     42.456000    17.644000    38.936000
C     41.741000    18.896000    39.205000
H     42.088000    19.784000    38.671000
C     40.706000    18.961000    40.065000
H     40.196000    19.913000    40.235000
C     40.183000    17.756000    40.811000
H     40.043000    18.031000    41.870000
O     38.951000    17.341000    40.247000
H     38.316000    17.047000    40.959000
C     43.614000    17.608000    37.932000
O     44.287000    16.557000    37.881000
O     43.861000    18.656000    37.265000
