24
Coordinates from ORCA-job neb_NEB-CI_converged.QMRegion
  C          43.88690639085100     17.67984886378848     41.32304563914617
  H          44.37102048348753     16.83252192784180     40.84257867760310
  H          44.42492496984505     18.61869086695499     41.45080047280845
  C          42.82374164138103     17.50517125525462     42.21815320712818
  C          42.37466885745661     18.70168595523427     43.10307945179184
  O          43.14868367851880     19.68103903099965     43.20051953979983
  O          41.26867107271975     18.58582312222442     43.69759397366541
  O          42.15886183194872     16.43534697365131     42.26468376515511
  C          40.85530118690966     16.33878902339215     40.43236108892398
  H          40.41344364800197     15.37782326191579     40.70596109018138
  C          41.94647675319160     16.39295909002302     39.59968339836129
  H          42.46375631283789     15.48419265649950     39.28805896302311
  C          42.54805654426343     17.63397860650525     39.29708454114678
  C          41.76242296049143     18.84772751930824     39.52526552286538
  H          42.16173970898122     19.77723079903126     39.11466180791043
  C          40.60050066608932     18.81518622536031     40.20133975091201
  H          40.03733981444807     19.73527009031581     40.37117190535979
  C          40.01584261253178     17.54907675868875     40.77192721524921
  H          39.99136118309563     17.65561262908438     41.87012820412028
  O          38.70674029221071     17.35551957142590     40.26429618210616
  H          38.07550105701415     17.06377132011731     40.98994252878790
  C          43.68890154911347     17.62679414161827     38.26400639400454
  O          44.44522228637314     16.63232718305749     38.27536198879316
  O          43.79092273328449     18.61209741398140     37.47616536219567
