24
frame 48292 P
C     39.020000    16.645000    42.613000
H     39.979000    16.118000    42.662000
H     39.148000    17.716000    42.823000
C     38.157000    15.960000    43.660000
C     37.105000    16.705000    44.550000
O     37.176000    17.952000    44.643000
O     36.282000    15.976000    45.146000
O     38.270000    14.761000    43.814000
C     36.746000    14.591000    41.164000
H     36.494000    13.533000    41.067000
C     37.999000    15.013000    40.982000
H     38.810000    14.319000    40.768000
C     38.415000    16.449000    41.155000
C     37.225000    17.371000    41.095000
H     37.449000    18.430000    40.950000
C     35.977000    16.952000    41.318000
H     35.164000    17.678000    41.380000
C     35.603000    15.504000    41.519000
H     35.351000    15.359000    42.590000
O     34.474000    15.198000    40.719000
H     33.784000    14.677000    41.235000
C     39.478000    16.800000    40.036000
O     40.446000    16.009000    39.837000
O     39.287000    17.839000    39.369000
