24
frame 48292 R
C     39.054000    16.686000    43.562000
H     39.807000    16.195000    42.948000
H     39.264000    17.670000    43.983000
C     37.867000    16.122000    43.805000
C     36.838000    16.764000    44.719000
O     36.918000    18.012000    44.882000
O     35.992000    16.015000    45.262000
O     37.515000    14.890000    43.282000
C     37.016000    14.882000    41.905000
H     36.687000    13.845000    41.743000
C     38.153000    15.216000    40.988000
H     38.949000    14.481000    40.870000
C     38.280000    16.432000    40.423000
C     37.250000    17.450000    40.666000
H     37.472000    18.464000    40.326000
C     36.113000    17.176000    41.330000
H     35.398000    17.974000    41.550000
C     35.756000    15.773000    41.755000
H     35.271000    15.793000    42.746000
O     34.868000    15.226000    40.788000
H     34.133000    14.713000    41.232000
C     39.499000    16.788000    39.587000
O     40.533000    16.057000    39.670000
O     39.417000    17.800000    38.850000
