24
Coordinates from ORCA-job neb_NEB-CI_converged.QMRegion
  C          39.09520742010903     16.65284302085113     43.07343222252968
  H          39.90486591039628     16.04268019344414     42.68438210339884
  H          39.24850960996080     17.72216889626680     43.22146341548724
  C          38.02446155688011     15.99578119003307     43.68392004433964
  C          36.98971151755796     16.72538384492264     44.56670431167868
  O          37.06745518670970     17.97676443098944     44.68749237853569
  O          36.13886180657647     16.00895516488772     45.14519046586631
  O          37.81278118852011     14.76074020183986     43.45760602746519
  C          36.83228837280718     14.64017227879152     41.50405265472246
  H          36.61563735536419     13.57494724704917     41.60316302130555
  C          38.00024261214189     15.05136095866707     40.89389598178902
  H          38.79399844196478     14.34362226499546     40.66723234233207
  C          38.28620383035524     16.41114576424988     40.75374351802774
  C          37.21033438562625     17.38499118209701     40.96929037725131
  H          37.44728171401366     18.43345491887172     40.78094081443442
  C          36.00436031490427     17.00596962902273     41.42179248023129
  H          35.23605815626946     17.75338572405711     41.63046006004260
  C          35.64767404745243     15.56546753002839     41.68316990965721
  H          35.28365738353483     15.47069724032357     42.72125200249675
  O          34.63313844006991     15.16914051259943     40.76535684866236
  H          33.90290408721859     14.65486258811474     41.23464686540985
  C          39.48157481378063     16.79546127619875     39.87257666946298
  O          40.46489439031050     16.00455219786233     39.77231032063596
  O          39.37418334000573     17.86364787760984     39.22768218978697
