24
frame 45688 P
C     44.327000    17.929000    33.870000
H     45.077000    17.243000    33.450000
H     44.783000    18.903000    34.091000
C     43.759000    17.297000    35.109000
C     43.386000    18.131000    36.359000
O     44.067000    19.155000    36.570000
O     42.469000    17.662000    37.078000
O     43.551000    16.100000    35.136000
C     41.239000    16.622000    33.309000
H     40.711000    15.670000    33.217000
C     42.380000    16.837000    32.651000
H     42.809000    16.062000    32.021000
C     43.174000    18.109000    32.793000
C     42.296000    19.232000    33.287000
H     42.681000    20.241000    33.129000
C     41.155000    19.018000    33.949000
H     40.573000    19.859000    34.339000
C     40.598000    17.641000    34.214000
H     40.821000    17.379000    35.270000
O     39.198000    17.671000    34.019000
H     38.741000    16.967000    34.574000
C     43.897000    18.432000    31.437000
O     44.538000    17.490000    30.897000
O     43.811000    19.596000    30.996000
