24
frame 45688 R
C     44.641000    17.848000    34.555000
H     44.941000    17.378000    33.618000
H     45.195000    18.717000    34.911000
C     43.590000    17.422000    35.265000
C     43.186000    18.052000    36.585000
O     43.629000    19.203000    36.841000
O     42.445000    17.380000    37.340000
O     42.813000    16.349000    34.881000
C     41.751000    16.601000    33.889000
H     41.198000    15.652000    33.859000
C     42.445000    16.878000    32.600000
H     42.919000    16.036000    32.102000
C     42.686000    18.136000    32.187000
C     42.058000    19.257000    32.900000
H     42.347000    20.261000    32.582000
C     41.199000    19.070000    33.919000
H     40.760000    19.926000    34.439000
C     40.762000    17.691000    34.357000
H     40.738000    17.639000    35.459000
O     39.472000    17.446000    33.821000
H     38.941000    16.847000    34.431000
C     43.679000    18.410000    31.060000
O     44.501000    17.495000    30.769000
O     43.632000    19.543000    30.525000
