24
Coordinates from ORCA-job neb_NEB-CI_converged.QMRegion
  C          44.55285130290341     17.85765063356473     34.22984182147139
  H          44.98446034441895     17.22870287122659     33.45501447735676
  H          44.98599068746677     18.84372877101515     34.40040173084401
  C          43.68291723637601     17.30783825133509     35.16697525100709
  C          43.26984219495750     18.06444804935168     36.44043150860243
  O          43.78621666149277     19.18704610588431     36.66657849116820
  O          42.45976921177095     17.47701563615499     37.20102047869432
  O          43.09939923444640     16.19086621436369     34.96181767635701
  C          41.46830918821290     16.52972691402891     33.63984353492778
  H          41.09153980292015     15.51072211767848     33.74400724308300
  C          42.34477714614840     16.84050787551300     32.61688482953832
  H          42.78945860437273     16.04822559277972     32.02302373626006
  C          42.86279000116404     18.13119617039730     32.51426193206717
  C          42.16275044639752     19.22455616285298     33.19993333708798
  H          42.51294305597872     20.23663327659931     32.98911525662187
  C          41.15354339268631     18.98326174228155     34.05362124623097
  H          40.64016714559651     19.80728729101034     34.55736218379085
  C          40.66468941179566     17.59127593785569     34.35833662061222
  H          40.74354081535093     17.41296370621392     35.44556699635844
  O          39.31464130905598     17.48757193950756     33.92928906892303
  H          38.79633948606476     16.84861344568983     34.52243719970068
  C          43.81591505932369     18.43357945434349     31.35446767073280
  O          44.51243036003770     17.48692867435292     30.89535524301656
  O          43.80341551048431     19.60586454436300     30.91883213031186
