24
frame 52192 P
C     38.888000    18.980000    43.746000
H     39.886000    18.534000    43.671000
H     38.938000    20.075000    43.679000
C     38.298000    18.540000    45.064000
C     37.327000    19.436000    45.884000
O     37.426000    20.674000    45.736000
O     36.549000    18.840000    46.664000
O     38.554000    17.428000    45.473000
C     36.614000    16.490000    43.313000
H     36.481000    15.424000    43.512000
C     37.756000    16.936000    42.784000
H     38.578000    16.248000    42.584000
C     38.031000    18.402000    42.553000
C     36.752000    19.196000    42.543000
H     36.817000    20.218000    42.161000
C     35.621000    18.760000    43.099000
H     34.770000    19.438000    43.176000
C     35.449000    17.375000    43.671000
H     35.392000    17.472000    44.773000
O     34.249000    16.810000    43.174000
H     33.709000    16.370000    43.891000
C     38.825000    18.535000    41.211000
O     40.023000    18.122000    41.182000
O     38.225000    19.029000    40.236000
