24
frame 52192 R
C     39.018000    19.301000    44.456000
H     39.647000    18.722000    43.778000
H     39.202000    20.365000    44.601000
C     37.986000    18.736000    45.093000
C     37.094000    19.515000    46.051000
O     37.136000    20.770000    45.973000
O     36.387000    18.858000    46.849000
O     37.695000    17.397000    44.987000
C     36.913000    16.935000    43.838000
H     36.696000    15.883000    44.071000
C     37.799000    17.041000    42.638000
H     38.628000    16.337000    42.570000
C     37.687000    18.059000    41.763000
C     36.605000    19.037000    41.928000
H     36.624000    19.913000    41.276000
C     35.667000    18.915000    42.884000
H     34.934000    19.712000    43.036000
C     35.556000    17.668000    43.732000
H     35.258000    17.933000    44.760000
O     34.585000    16.823000    43.130000
H     33.998000    16.392000    43.810000
C     38.702000    18.267000    40.652000
O     39.897000    17.890000    40.849000
O     38.308000    18.841000    39.610000
