24
Coordinates from ORCA-job neb_NEB-CI_converged.QMRegion
  C          39.03317111163016     19.09635538949053     44.05567724153514
  H          39.79719112357186     18.45992436472804     43.61573394617290
  H          39.10024885780946     20.17725762049664     43.93420279088038
  C          38.18351969140279     18.56130601066220     45.02453984740047
  C          37.24173967230515     19.43579527799333     45.87900708553172
  O          37.30738489887328     20.68404212686309     45.75693919769943
  O          36.48337710565213     18.83051035084152     46.67607390170451
  O          38.07212772568257     17.30244901266166     45.16097036685122
  C          36.76492711793204     16.56761813646324     43.61476256431511
  H          36.73127509887951     15.55810544416724     44.02699854427996
  C          37.72773957288682     16.88823247565231     42.67538795854792
  H          38.54533355277054     16.19646547730207     42.48120657487178
  C          37.80316876860884     18.18588350746649     42.16515353437748
  C          36.65861406321534     19.08405149707842     42.35895286511374
  H          36.70278390350909     20.06300900060286     41.87710961194658
  C          35.62615803567006     18.74746748895377     43.14723037238331
  H          34.83116304680321     19.46891417097275     43.34331385071471
  C          35.51155118505675     17.39624285871382     43.80368568858353
  H          35.34637620703468     17.54366789593212     44.88275821191161
  O          34.42546509277531     16.68897108460027     43.21327733898787
  H          33.81269226123252     16.29295886498617     43.90159842939875
  C          38.76092527369494     18.43984655711500     41.00512937030197
  O          39.94907623029810     18.00902423047797     41.05206380507389
  O          38.26666004045252     19.03994174071434     40.02505995851772
