24
frame 05680 P
C     52.737000    30.513000    62.266000
H     53.203000    30.023000    63.135000
H     53.399000    31.305000    61.887000
C     51.399000    31.055000    62.741000
C     50.765000    32.443000    62.355000
O     51.490000    33.394000    61.976000
O     49.526000    32.512000    62.492000
O     50.712000    30.344000    63.445000
C     50.104000    28.765000    60.988000
H     49.261000    28.132000    61.276000
C     51.327000    28.531000    61.469000
H     51.509000    27.712000    62.166000
C     52.511000    29.405000    61.137000
C     52.258000    30.196000    59.878000
H     53.136000    30.650000    59.416000
C     51.032000    30.439000    59.405000
H     50.889000    31.074000    58.523000
C     49.779000    29.879000    60.026000
H     49.263000    30.699000    60.571000
O     48.940000    29.401000    58.990000
H     47.969000    29.566000    59.196000
C     53.773000    28.451000    60.989000
O     54.004000    27.619000    61.904000
O     54.437000    28.544000    59.929000
