24
frame 05680 R
C     52.516000    31.217000    62.859000
H     52.971000    30.263000    63.125000
H     53.147000    32.103000    62.809000
C     51.212000    31.323000    62.581000
C     50.536000    32.655000    62.297000
O     51.258000    33.649000    61.991000
O     49.288000    32.685000    62.384000
O     50.351000    30.238000    62.620000
C     50.321000    29.335000    61.472000
H     49.452000    28.689000    61.661000
C     51.573000    28.512000    61.478000
H     51.666000    27.715000    62.218000
C     52.600000    28.790000    60.653000
C     52.455000    29.879000    59.677000
H     53.358000    30.181000    59.144000
C     51.284000    30.500000    59.450000
H     51.212000    31.299000    58.703000
C     50.016000    30.085000    60.151000
H     49.430000    30.976000    60.438000
O     49.267000    29.275000    59.257000
H     48.282000    29.425000    59.373000
C     53.896000    27.987000    60.691000
O     54.092000    27.196000    61.658000
O     54.676000    28.151000    59.718000
