24
Coordinates from ORCA-job neb_NEB-CI_converged.QMRegion
  C          52.69058038315595     30.85500085389602     62.56191135870196
  H          53.08894326325297     30.00403313330902     63.11171197237326
  H          53.39033817760033     31.60021343831680     62.17946948944416
  C          51.32290174325657     31.14073704347584     62.66078152367090
  C          50.68455747810638     32.51206503358939     62.31440366811887
  O          51.40265029105365     33.48525981029162     61.94667851387641
  O          49.44538339265757     32.58585768571736     62.46827421179923
  O          50.49655147216288     30.23329448770405     62.99840673622887
  C          50.15096655532466     28.98653789736794     61.22248474877990
  H          49.27917661238292     28.49189018822788     61.65284971044716
  C          51.40722419964550     28.45091131212833     61.41335387361453
  H          51.55995644056919     27.62318928220862     62.10405735496585
  C          52.52730451960097     29.06980077260518     60.85312771021975
  C          52.31994291484531     30.08469818667679     59.81091025975728
  H          53.21331377468641     30.48888958562511     59.33278207570165
  C          51.09212848232492     30.50630529315401     59.46763878085703
  H          50.95248515550317     31.25170509026003     58.67813742720819
  C          49.84573815940393     29.98395378978944     60.12795636314271
  H          49.28768183845952     30.82825212785443     60.57269936975478
  O          49.05723677328000     29.33514098577812     59.13710071197679
  H          48.07050634497254     29.48712459253306     59.29461339162699
  C          53.83690332941981     28.26370022685498     60.86437566898297
  O          54.04826976474427     27.43623371554062     61.79102991226738
  O          54.56671448264813     28.40988313003661     59.85255028677191
