24
frame 47641 P
C     40.900000    16.521000    40.459000
H     41.870000    16.045000    40.271000
H     41.035000    17.479000    40.976000
C     40.092000    15.600000    41.323000
C     39.279000    16.190000    42.493000
O     39.798000    17.169000    43.066000
O     38.204000    15.605000    42.773000
O     40.092000    14.401000    41.117000
C     38.637000    14.893000    38.549000
H     38.426000    13.897000    38.158000
C     39.851000    15.438000    38.436000
H     40.675000    14.893000    37.969000
C     40.199000    16.763000    39.068000
C     38.957000    17.582000    39.319000
H     39.110000    18.654000    39.469000
C     37.745000    17.034000    39.441000
H     36.885000    17.658000    39.695000
C     37.482000    15.558000    39.255000
H     37.384000    15.110000    40.265000
O     36.285000    15.357000    38.524000
H     35.668000    14.733000    39.000000
C     41.233000    17.508000    38.175000
O     42.402000    17.004000    38.133000
O     40.904000    18.564000    37.606000
