24
frame 47641 R
C     41.215000    16.245000    41.042000
H     41.836000    15.921000    40.214000
H     41.536000    17.082000    41.662000
C     40.053000    15.661000    41.353000
C     39.219000    16.169000    42.522000
O     39.682000    17.131000    43.167000
O     38.123000    15.579000    42.741000
O     39.551000    14.582000    40.653000
C     38.909000    14.808000    39.344000
H     38.663000    13.796000    38.995000
C     39.936000    15.470000    38.482000
H     40.784000    14.869000    38.146000
C     39.982000    16.813000    38.388000
C     38.868000    17.619000    38.906000
H     38.979000    18.704000    38.847000
C     37.772000    17.062000    39.450000
H     36.969000    17.696000    39.835000
C     37.574000    15.569000    39.526000
H     37.230000    15.315000    40.541000
O     36.616000    15.167000    38.557000
H     35.904000    14.610000    38.984000
C     41.202000    17.548000    37.869000
O     42.349000    17.024000    38.045000
O     41.018000    18.675000    37.365000
