24
Coordinates from ORCA-job neb_NEB-CI_converged.QMRegion
  C          41.14007094659089     16.32411509452270     40.80122870449582
  H          41.85858552903465     15.86895954669565     40.13189120348611
  H          41.37892325099384     17.27011187362218     41.28516876544958
  C          40.07999881671635     15.59274424119827     41.30796134908132
  C          39.24001870265769     16.18822847552450     42.44722677076348
  O          39.72512943185087     17.16593990541021     43.05561164116107
  O          38.14561203543906     15.61278625539534     42.70036765870240
  O          39.71573031956680     14.47826537731300     40.78687821608049
  C          38.77016145913264     14.76310304954913     38.99227330339763
  H          38.63537170117447     13.69619854486477     38.80630399217338
  C          39.84407480969163     15.43242569612191     38.41164865736972
  H          40.66298455502480     14.86947387782720     37.96081196878055
  C          40.04104084998460     16.78034919072332     38.70480467112350
  C          38.90257729199501     17.56342924624771     39.20270522629095
  H          39.04444102867520     18.64279629772854     39.28303026480599
  C          37.74394383422437     16.97694504763388     39.54605753121769
  H          36.90931983304598     17.57809442858806     39.91395187513434
  C          37.51930450872461     15.49122069067343     39.45375076202568
  H          37.27546596811548     15.12654322231292     40.46450369142680
  O          36.45545508560993     15.21609777830338     38.55100274272065
  H          35.76568264421648     14.63216715213909     38.98658552040243
  C          41.21015887221254     17.52579069755809     38.07936029026797
  O          42.36368387991179     16.99177363514087     38.09113169917791
  O          40.96158210664209     18.64865694053239     37.59632963841615
