24
frame 14155 P
C     46.128000    31.084000    59.693000
H     46.832000    30.395000    60.183000
H     46.217000    32.079000    60.129000
C     44.725000    30.593000    59.942000
C     43.553000    31.597000    60.204000
O     43.837000    32.795000    60.460000
O     42.404000    31.122000    60.149000
O     44.480000    29.405000    59.928000
C     45.105000    29.518000    56.899000
H     44.913000    28.511000    56.528000
C     46.246000    29.815000    57.530000
H     47.021000    29.065000    57.699000
C     46.490000    31.162000    58.152000
C     45.603000    32.216000    57.529000
H     45.918000    33.251000    57.667000
C     44.469000    31.917000    56.887000
H     43.828000    32.707000    56.486000
C     43.986000    30.505000    56.675000
H     43.189000    30.305000    57.425000
O     43.447000    30.375000    55.371000
H     42.565000    29.881000    55.432000
C     48.010000    31.566000    58.118000
O     48.880000    30.689000    58.306000
O     48.259000    32.801000    57.998000
