24
frame 14155 R
C     45.788000    30.879000    60.789000
H     46.603000    30.156000    60.734000
H     45.899000    31.757000    61.425000
C     44.656000    30.712000    60.097000
C     43.491000    31.687000    60.204000
O     43.731000    32.856000    60.609000
O     42.354000    31.264000    59.899000
O     44.451000    29.588000    59.318000
C     44.847000    29.615000    57.895000
H     44.627000    28.596000    57.546000
C     46.318000    29.906000    57.836000
H     47.023000    29.114000    58.093000
C     46.759000    31.169000    57.664000
C     45.794000    32.232000    57.344000
H     46.184000    33.249000    57.312000
C     44.498000    31.979000    57.089000
H     43.817000    32.796000    56.832000
C     43.932000    30.583000    57.103000
H     42.981000    30.599000    57.660000
O     43.717000    30.144000    55.770000
H     42.787000    29.762000    55.702000
C     48.213000    31.552000    57.925000
O     49.059000    30.675000    58.210000
O     48.456000    32.796000    57.909000
