24
Coordinates from ORCA-job neb_NEB-CI_converged.QMRegion
  C          45.99958917373824     30.97623836011481     60.24061486245767
  H          46.77762323038682     30.21878558191028     60.31256576749013
  H          46.16489967240553     31.94462861457905     60.69735627122430
  C          44.68341484086785     30.61465356025756     59.96841172214937
  C          43.53631043075107     31.63033747688038     60.15808513591725
  O          43.81118644303491     32.80533164719591     60.52652212689202
  O          42.37722843977239     31.21112624597808     59.95049191237440
  O          44.40044148944801     29.48716555303709     59.45239091375102
  C          44.93557278919657     29.51092829274235     57.36846851221218
  H          44.65832058925573     28.46725842222813     57.21330710368901
  C          46.25580619327818     29.84250223577590     57.61371471742583
  H          47.00800920523312     29.07438332165791     57.79619252354625
  C          46.59150305832086     31.17313152781674     57.89773343939985
  C          45.64187272164243     32.22664485232136     57.52050910789243
  H          45.98925993912760     33.25540799328131     57.61759873096103
  C          44.41726782204539     31.93764446073960     57.05038429332104
  H          43.73579055834536     32.73630223091629     56.74558276444320
  C          43.90922601726458     30.52965562548760     56.91114160591682
  H          43.02323797083236     30.42708399643798     57.56228399479069
  O          43.55565506911805     30.28065044034975     55.55677342261658
  H          42.65474109861607     29.81279920864009     55.54422566184432
  C          48.06355631839546     31.56112232774957     58.08406144142850
  O          48.91925842082158     30.67658876480800     58.30720531007992
  O          48.32061026407010     32.79843265673522     57.99768188764087
